; Filename: C:\Users\Admin\Downloads\hydraid\data\l_town.inp
; WNTR: 1.5.0
; Created: 2026-08-22 23:49:16
[TITLE]
L-TOWN v1.2
L-TOWN (v1.2) was developed by KIOS Research and Innovation Center of Excellence for the BattLeDIM 2020 competition

[JUNCTIONS]
;ID                      Elevation       Demand Pattern                 
 n1                           73.2105               0                            ;
 n2                           73.8737         0.16992                            ;
 n3                           73.1782          0.1908                            ;
 n4                           68.2608               0                            ;
 n5                           65.5695          0.2322                            ;
 n6                           70.9095          0.2466                            ;
 n7                           75.9175         0.37836                            ;
 n8                           64.4833         0.30132                            ;
 n9                           69.2626         0.40464                            ;
 n10                          74.3469         0.08424                            ;
 n11                          63.0588         0.54432                            ;
 n12                          68.2274         0.05832                            ;
 n13                          61.9901          0.2358                            ;
 n14                          68.5805         0.01944                            ;
 n15                          70.9492         0.19152                            ;
 n16                          68.7986         0.09648                            ;
 n17                          60.5935         0.44892                            ;
 n18                           67.142         0.07236                            ;
 n19                          73.3626         0.12924                            ;
 n20                          65.9549         0.14436                            ;
 n21                          59.6849         0.06084                            ;
 n22                          76.1173         0.15084                            ;
 n23                          64.2052         0.02869                            ;
 n24                          67.8217         0.04392                            ;
 n25                          58.9717               0                            ;
 n26                          61.6305         0.00468                            ;
 n27                          65.7763         0.13068                            ;
 n28                          61.4047               0                            ;
 n29                          71.5429         0.04896                            ;
 n30                          75.3299         0.30564                            ;
 n31                          65.0059         0.11628                            ;
 n32                           71.159         0.07992                            ;
 n33                          60.5902         0.00288                            ;
 n34                          65.8482         0.11232                            ;
 n35                          59.6258               0                            ;
 n36                          70.1959          0.2664                            ;
 n37                          63.9172          0.0846                            ;
 n38                          58.5794         0.18889                            ;
 n39                          62.9791         0.01656                            ;
 n40                          60.2093           0.342                            ;
 n41                          69.2961         0.17028                            ;
 n42                          61.0635           0.243                            ;
 n43                          61.8585         0.11808                            ;
 n44                          66.1177         0.03888                            ;
 n45                          62.5989         0.27288                            ;
 n46                          38.8781         0.06966                            ;
 n47                          38.7028         0.14616                            ;
 n48                          40.1135         0.21785                            ;
 n49                          34.8665         0.10363                            ;
 n50                          44.7174         0.38988                            ;
 n51                          29.8508          0.3334                            ;
 n52                          33.2106         0.04891                            ;
 n53                          29.1285         0.29952                            ;
 n54                          36.6718          0.0848                            ;
 n55                          43.7044         0.25355                            ;
 n56                          32.7019         0.31822                            ;
 n57                          34.5788         0.06806                            ;
 n58                          30.1017         0.16375                            ;
 n59                           40.544         0.13478                            ;
 n60                          36.5477         0.08755                            ;
 n61                          36.5714         0.02633                            ;
 n62                            35.96         0.07906                            ;
 n63                          37.0071         0.15595                            ;
 n64                          34.9234         0.15692                            ;
 n65                          36.2244         0.04244                            ;
 n66                           34.276         0.07326                            ;
 n67                          32.5016         0.40471                            ;
 n68                          41.0943         0.17813                            ;
 n69                          27.7774         0.37723                            ;
 n70                          29.8554          0.1782                            ;
 n71                          30.0823         0.24183                            ;
 n72                          34.4673         0.01949                            ;
 n73                          33.0899         0.03154                            ;
 n74                          32.3582          0.0491                            ;
 n75                          40.1001         0.02443                            ;
 n76                          30.5603         0.09745                            ;
 n77                          33.9737         0.02948                            ;
 n78                          29.2383         0.09988                            ;
 n79                          32.7267         0.18274                            ;
 n80                          27.7113          0.2583                            ;
 n81                          31.0269         0.17222                            ;
 n82                          39.6884         0.17608                            ;
 n83                          35.7824           0.153                            ;
 n84                          28.8092         0.14195                            ;
 n85                          38.6811         0.00108                            ;
 n86                          38.1149         0.18198                            ;
 n87                          35.2466         0.00612                            ;
 n88                          34.2301         0.07697                            ;
 n89                          31.7913         0.01813                            ;
 n90                          36.3955         0.10692                            ;
 n91                          33.0649         0.01332                            ;
 n92                          33.1049         0.01573                            ;
 n93                          29.3998         0.16114                            ;
 n94                          27.5188         0.53474                            ;
 n95                          25.4416               0                            ;
 n96                          24.1924          0.1387                            ;
 n97                          27.2125         0.42466                            ;
 n98                          25.5648         0.12312                            ;
 n99                          23.3478         0.17172                            ;
 n100                         25.0658         0.36382                            ;
 n101                          24.157           0.126                            ;
 n102                         23.6941         0.09448                            ;
 n103                         24.3635         0.08467                            ;
 n104                         20.9592               0                            ;
 n105                          24.022          0.0014                            ;
 n106                         23.5008         0.11196                            ;
 n107                          23.541         0.00074                            ;
 n108                         19.8166               0                            ;
 n109                         23.4984        0.000578                            ;
 n110                         23.8384         0.02804                            ;
 n111                              25         0.36893                            ;
 n112                         23.5656         0.11707                            ;
 n113                         23.6071         0.12566                            ;
 n114                         20.4764         0.08237                            ;
 n115                         23.8321         0.00648                            ;
 n116                          20.911         0.19019                            ;
 n117                         26.9614         0.25834                            ;
 n118                         19.0993               0                            ;
 n119                         20.0895         0.24257                            ;
 n120                         22.6201         0.08496                            ;
 n121                         19.3967         0.00024                            ;
 n122                         22.4946         0.10166                            ;
 n123                         21.5338         0.13435                            ;
 n124                         22.6501         0.01188                            ;
 n125                         20.5899            0.05                            ;
 n126                          19.167         0.23803                            ;
 n127                         19.1187         0.00596                            ;
 n128                         22.0969         0.11182                            ;
 n129                          25.901         0.14202                            ;
 n130                         22.1732          0.2047                            ;
 n131                          19.552         0.11822                            ;
 n132                         20.3762         0.13212                            ;
 n133                         22.5783         0.27927                            ;
 n134                         19.2113         0.00896                            ;
 n135                         19.1205         0.11318                            ;
 n136                         20.3013         0.33602                            ;
 n137                         19.6856         0.03676                            ;
 n138                          20.838         0.02727                            ;
 n139                         19.6632               0                            ;
 n140                         27.3504         0.11668                            ;
 n141                         23.1252         0.21607                            ;
 n142                         19.6239         0.03985                            ;
 n143                         20.8754         0.12398                            ;
 n144                         26.9472         0.33964                            ;
 n145                         22.1344         0.12636                            ;
 n146                         21.8276           0.173                            ;
 n147                         19.9725          0.1579                            ;
 n148                         20.1477           0.072                            ;
 n149                         20.9496          0.0563                            ;
 n150                         22.6861          0.0171                            ;
 n151                         19.8447         0.03215                            ;
 n152                         19.1334               0                            ;
 n153                         22.6394         0.21319                            ;
 n154                         20.3582         0.16153                            ;
 n155                         26.3852         0.08989                            ;
 n156                         20.0619          0.0168                            ;
 n157                         20.4464          0.0268                            ;
 n158                         19.7472               0                            ;
 n159                         27.0053         0.14767                            ;
 n160                         20.2078         0.23962                            ;
 n161                         21.3197               0                            ;
 n162                         26.9729         0.02106                            ;
 n163                         21.6096         0.04685                            ;
 n164                         20.2745         0.17852                            ;
 n165                         19.8081         0.32357                            ;
 n166                          20.275         0.23162                            ;
 n167                         22.5413         0.15163                            ;
 n168                         20.4384         0.04698                            ;
 n169                         27.0181         0.06359                            ;
 n170                         23.2339         0.56804                            ;
 n171                         20.6067         0.21852                            ;
 n172                         19.1601         0.05054                            ;
 n173                         21.0596         0.17939                            ;
 n174                         21.4292               0                            ;
 n175                         19.3536         0.11794                            ;
 n176                         27.7038         0.11452                            ;
 n177                         19.3479         0.16733                            ;
 n178                         21.9026         0.03784                            ;
 n179                         19.4895               0                            ;
 n180                         22.7778          0.0212                            ;
 n181                         23.7049         0.12924                            ;
 n182                          25.085         0.16182                            ;
 n183                         19.3859         0.13435                            ;
 n184                         27.2441         0.05353                            ;
 n185                         19.0789         0.15725                            ;
 n186                         21.8196         0.11016                            ;
 n187                         19.0349         0.02351                            ;
 n188                         18.8768         0.00036                            ;
 n189                         18.6826         0.11642                            ;
 n190                         19.6529         0.05832                            ;
 n191                         27.4799         0.34571                            ;
 n192                          22.206         0.25493                            ;
 n193                         19.7041         0.02736                            ;
 n194                         19.7601         0.02025                            ;
 n195                         16.8285          0.0994                            ;
 n196                         19.8226         0.07574                            ;
 n197                         16.5799               0                            ;
 n198                         22.8492               0                            ;
 n199                         16.5475         0.15941                            ;
 n200                         18.2407         0.14288                            ;
 n201                          19.106         0.06221                            ;
 n202                         17.9436         0.02819                            ;
 n203                         22.0332          0.1908                            ;
 n204                          16.436         0.06998                            ;
 n205                          6.9791               0                            ;
 n206                          7.9123               0                            ;
 n207                          2.0579               0                            ;
 n208                          5.9061               0                            ;
 n209                          4.6117               0                            ;
 n210                          2.7477               0                            ;
 n211                          4.8451               0                            ;
 n212                          2.3488               0                            ;
 n213                          3.2427               0                            ;
 n214                         16.8316         0.00894                            ;
 n215                          2.0066               0                            ;
 n216                          2.4091               0                            ;
 n217                          1.8712               0                            ;
 n218                         29.6006         0.13648                            ;
 n219                         28.4518         0.12053                            ;
 n220                         30.7523         0.18137                            ;
 n221                         28.2232         0.08975                            ;
 n222                         28.0585         0.00828                            ;
 n223                         28.5629         0.04495                            ;
 n224                         26.9114         0.11122                            ;
 n225                            25.5         0.19604                            ;
 n226                           6.113               0                            ;
 n227                          5.7901               0                            ;
 n228                         27.3852         0.10226                            ;
 n229                         21.5781         0.17842                            ;
 n230                         28.3962         0.04198                            ;
 n231                          4.8639               0                            ;
 n232                         26.0377         0.04068                            ;
 n233                          4.4157               0                            ;
 n234                          5.1036         0.09742                            ;
 n235                         24.1047         0.27477                            ;
 n236                          3.0871               0                            ;
 n237                          4.0834         0.13003                            ;
 n238                         24.6076         0.34164                            ;
 n239                         22.9677         0.23594                            ;
 n240                         28.8065         0.20297                            ;
 n241                         22.1953         0.17762                            ;
 n242                          2.3582               0                            ;
 n243                          2.6564               0                            ;
 n244                         21.2523         0.58954                            ;
 n245                          28.661         0.10076                            ;
 n246                          1.9044               0                            ;
 n247                           2.117               0                            ;
 n248                           29.31         0.16481                            ;
 n249                         28.5347         0.04522                            ;
 n250                          28.414         0.08975                            ;
 n251                         21.3004           0.189                            ;
 n252                         24.7044         0.13626                            ;
 n253                          2.2871         0.18871                            ;
 n254                          2.2175         0.00324                            ;
 n255                         20.9378         0.00072                            ;
 n256                          17.777         0.24264                            ;
 n257                         28.3219         0.05373                            ;
 n258                         24.7483         0.05029                            ;
 n259                          24.601               0                            ;
 n260                         17.7457          0.1265                            ;
 n261                         16.7006         0.14148                            ;
 n262                         24.2606         0.21595                            ;
 n263                         24.6696         0.10402                            ;
 n264                         20.6282               0                            ;
 n265                         28.4319         0.03071                            ;
 n266                          19.968         0.32069                            ;
 n267                         23.3745         0.13117                            ;
 n268                         21.9354         0.11255                            ;
 n269                         26.1653         0.09756                            ;
 n270                         20.8216          0.1773                            ;
 n271                          34.039         0.14744                            ;
 n272                         20.1368         0.13003                            ;
 n273                         24.5091         0.26946                            ;
 n274                         32.8648         0.01168                            ;
 n275                         29.2533         0.08345                            ;
 n276                         21.3002         0.20909                            ;
 n277                          22.448         0.01692                            ;
 n278                         22.0132         0.11088                            ;
 n279                         21.7544         0.08381                            ;
 n280                         29.6042         0.11866                            ;
 n281                         31.2675         0.11993                            ;
 n282                         30.4949         0.15779                            ;
 n283                         27.4233          0.1444                            ;
 n284                         26.3666         0.18079                            ;
 n285                         20.4612          0.1896                            ;
 n286                         29.0388         0.25715                            ;
 n287                         33.0444               0                            ;
 n288                         21.6218          0.0142                            ;
 n289                         27.4463          0.0464                            ;
 n290                         24.6247         0.15876                            ;
 n291                         32.4985         0.15656                            ;
 n292                         31.9495         0.08428                            ;
 n293                         26.5282          0.1674                            ;
 n294                         26.5192         0.04099                            ;
 n295                         30.8274         0.14575                            ;
 n296                         32.1966          0.0945                            ;
 n297                         23.3934         0.18839                            ;
 n298                         34.8909               0                            ;
 n299                         26.7205         0.18144                            ;
 n300                              35               0                            ;
 n301                           23.52          0.0682                            ;
 n302                         23.3123         0.16222                            ;
 n303                         34.4994               0                            ;
 n304                          32.978         0.10766                            ;
 n305                         25.4869         0.22993                            ;
 n306                         23.6839         0.22514                            ;
 n307                         31.4204         0.14926                            ;
 n308                         23.3861         0.09626                            ;
 n309                         23.1678         0.26712                            ;
 n310                           22.36         0.14803                            ;
 n311                         29.5998         0.01915                            ;
 n312                         22.0779         0.13349                            ;
 n313                         21.7616         0.15516                            ;
 n314                         29.6902         0.08208                            ;
 n315                         22.7969         0.14105                            ;
 n316                         29.3551         0.11466                            ;
 n317                         22.2884         0.08093                            ;
 n318                         23.5639         0.16934                            ;
 n319                         30.4617         0.05263                            ;
 n320                         28.2142         0.10174                            ;
 n321                          21.897         0.11131                            ;
 n322                         26.9371               0                            ;
 n323                         26.0702         0.21002                            ;
 n324                         24.9686          0.0126                            ;
 n325                         24.3047         0.19022                            ;
 n326                         23.6854         0.18718                            ;
 n327                         22.2849         0.21555                            ;
 n328                         22.1954          0.0527                            ;
 n329                         24.3743          0.0072                            ;
 n330                         22.0274          0.0851                            ;
 n331                         22.9257         0.03082                            ;
 n332                              18          0.0058                            ;
 n333                              18         0.03938                            ;
 n334                              18         0.07502                            ;
 n335                           27.45         0.12953                            ;
 n336                              26         0.30726                            ;
 n337                             4.1               0                            ;
 n338                            28.2               0                            ;
 n339                            22.8         0.21607                            ;
 n340                            30.1         0.45761                            ;
 n341                            22.8         0.00216                            ;
 n342                           27.36               0                            ;
 n343                           66.12          0.1283                            ;
 n344                           74.28          0.2664                            ;
 n345                           71.23         0.05256                            ;
 n346                           67.93         0.17856                            ;
 n347                         73.6617               0                            ;
 n348                         74.1128         0.02988                            ;
 n349                          74.564         0.05976                            ;
 n350                         75.0152         0.20844                            ;
 n351                         75.4663          0.3924                            ;
 n352                         74.1103          0.1332                            ;
 n353                         73.5455         0.29268                            ;
 n354                         73.9127         0.12312                            ;
 n355                         66.4555         0.43812                            ;
 n356                         67.3414          0.1242                            ;
 n357                          69.745         0.10224                            ;
 n358                         75.9841         0.55008                            ;
 n359                         76.0507         0.38808                            ;
 n360                         64.9738          0.2682                            ;
 n361                         65.4644          0.1134                            ;
 n362                         74.0188         0.00576                            ;
 n363                         73.6907         0.15444                            ;
 n364                         63.4409         0.09936                            ;
 n365                         63.8231         0.11052                            ;
 n366                         61.8702          0.1638                            ;
 n367                         61.7504         0.04489                            ;
 n368                         71.0896         0.11556                            ;
 n369                         60.5924         0.17784                            ;
 n370                         60.5913         0.04027                            ;
 n371                         73.8213         0.07056                            ;
 n372                         65.8656           0.036                            ;
 n373                         59.6553          0.0306                            ;
 n374                         74.9737         0.11268                            ;
 n375                         73.8301         0.05868                            ;
 n376                         72.6865         0.12816                            ;
 n377                         62.9179               0                            ;
 n378                         68.9578         0.01368                            ;
 n379                         70.0939          0.0972                            ;
 n380                         61.2341         0.16812                            ;
 n381                         74.0464         0.23004                            ;
 n382                         72.7629          0.1476                            ;
 n383                         71.4794          0.0846                            ;
 n384                         69.5445         0.21024                            ;
 n385                         66.8891         0.04896                            ;
 n386                         59.3943         0.24876                            ;
 n387                         64.9448         0.16092                            ;
 n388                         63.7718         0.29851                            ;
 n389                         67.0238         0.16812                            ;
 n390                          38.164          0.1278                            ;
 n391                         37.6252         0.12024                            ;
 n392                         37.0865         0.07148                            ;
 n393                         38.8775         0.07258                            ;
 n394                         39.0521         0.08705                            ;
 n395                         39.2268         0.09466                            ;
 n396                         39.4015         0.04786                            ;
 n397                         39.5761          0.1382                            ;
 n398                         39.7508         0.15822                            ;
 n399                         39.9254         0.00252                            ;
 n400                          40.257         0.11056                            ;
 n401                         40.4005         0.31273                            ;
 n402                         41.2645         0.27742                            ;
 n403                         42.4154         0.30726                            ;
 n404                         43.5664         0.19537                            ;
 n405                         34.7226         0.16709                            ;
 n406                         29.9762         0.12148                            ;
 n407                         31.6562         0.16337                            ;
 n408                         36.3159         0.29081                            ;
 n409                         42.1242         0.04237                            ;
 n410                         42.8344         0.06212                            ;
 n411                         41.9643         0.27335                            ;
 n412                         32.6351         0.25614                            ;
 n413                         32.5684         0.05326                            ;
 n414                         34.4274         0.19237                            ;
 n415                         28.5315          0.4277                            ;
 n416                         40.7274         0.06138                            ;
 n417                         40.9109         0.13871                            ;
 n418                         35.4624           0.018                            ;
 n419                         34.9649         0.03013                            ;
 n420                          37.454         0.12514                            ;
 n421                         37.9009         0.06395                            ;
 n422                         38.3478         0.13797                            ;
 n423                         38.7946          0.3735                            ;
 n424                         39.2415         0.05476                            ;
 n425                         34.3122         0.13761                            ;
 n426                         33.7011         0.10228                            ;
 n427                         36.5315         0.10246                            ;
 n428                         36.8386         0.09475                            ;
 n429                         37.1457         0.00324                            ;
 n430                         37.4527         0.12317                            ;
 n431                         37.7598         0.01656                            ;
 n432                         38.0669         0.12276                            ;
 n433                          38.374         0.26546                            ;
 n434                         40.5972         0.36144                            ;
 n435                         28.8164         0.22423                            ;
 n436                         34.2205         0.07918                            ;
 n437                         32.5424         0.03933                            ;
 n438                         39.8942         0.14116                            ;
 n439                         30.7936         0.14146                            ;
 n440                         34.2919         0.05306                            ;
 n441                         34.6102         0.12953                            ;
 n442                         34.9284               0                            ;
 n443                         29.0953          0.0918                            ;
 n444                         28.9522         0.16268                            ;
 n445                         28.2603         0.07409                            ;
 n446                          31.218         0.22673                            ;
 n447                         31.4091         0.20864                            ;
 n448                         31.6002         0.05967                            ;
 n449                         39.1847         0.16751                            ;
 n450                         35.9868         0.13968                            ;
 n451                         36.1911         0.27734                            ;
 n452                         29.8032         0.11282                            ;
 n453                         30.7973         0.25967                            ;
 n454                         34.0772         0.34906                            ;
 n455                         32.9079         0.15365                            ;
 n456                         31.7385         0.14371                            ;
 n457                         30.5692         0.22248                            ;
 n458                          30.598         0.07027                            ;
 n459                         29.4047         0.12107                            ;
 n460                         28.2114         0.29563                            ;
 n461                          34.297         0.43974                            ;
 n462                         32.1985          0.2475                            ;
 n463                         28.8609               0                            ;
 n464                         28.3219               0                            ;
 n465                          27.783         0.15322                            ;
 n466                         28.7199         0.10325                            ;
 n467                         28.0399               0                            ;
 n468                         26.5418         0.14132                            ;
 n469                         26.9995               0                            ;
 n470                         26.4802         0.17064                            ;
 n471                         25.9609         0.26208                            ;
 n472                          24.817         0.17071                            ;
 n473                         24.1747         0.52281                            ;
 n474                         26.1391          0.0108                            ;
 n475                         26.0878         0.20736                            ;
 n476                         24.9631         0.22064                            ;
 n477                         24.8609         0.06959                            ;
 n478                         22.8701         0.00036                            ;
 n479                         22.3924               0                            ;
 n480                         21.9146         0.47995                            ;
 n481                         21.4369               0                            ;
 n482                         24.3157         0.11855                            ;
 n483                         24.5439          0.5292                            ;
 n484                         22.6375          0.1296                            ;
 n485                         21.7743           0.011                            ;
 n486                          19.458          0.1458                            ;
 n487                         19.9531         0.17618                            ;
 n488                         22.7713         0.17593                            ;
 n489                         22.0441         0.39744                            ;
 n490                          21.317               0                            ;
 n491                         23.0928         0.11038                            ;
 n492                          22.916         0.13817                            ;
 n493                         22.2249         0.03838                            ;
 n494                         23.2411         0.08132                            ;
 n495                         22.9645         0.14976                            ;
 n496                         25.3653         0.33768                            ;
 n497                         23.7693         0.43724                            ;
 n498                         26.4312         0.30665                            ;
 n499                         19.6041         0.33404                            ;
 n500                         22.0404         0.03505                            ;
 n501                         21.4607          0.1026                            ;
 n502                          20.881         0.12247                            ;
 n503                         19.2577         0.25819                            ;
 n504                         20.9964         0.03312                            ;
 n505                         19.4982         0.03661                            ;
 n506                          20.955         0.10879                            ;
 n507                         20.9532         0.09223                            ;
 n508                         20.3725         0.09216                            ;
 n509                         19.7919          0.0841                            ;
 n510                         21.1001          0.0054                            ;
 n511                           19.55         0.17878                            ;
 n512                         20.1304         0.17046                            ;
 n513                         19.6708         0.01721                            ;
 n514                          19.291               0                            ;
 n515                         19.4151               0                            ;
 n516                         19.5392               0                            ;
 n517                         20.7313         0.31486                            ;
 n518                         19.3656         0.49774                            ;
 n519                         26.6257         0.31709                            ;
 n520                         24.9757         0.39467                            ;
 n521                         24.0505         0.52009                            ;
 n522                         21.5056          0.1125                            ;
 n523                         20.0309         0.29347                            ;
 n524                         20.3387         0.19483                            ;
 n525                         21.4862          0.8478                            ;
 n526                         19.4866               0                            ;
 n527                           19.31         0.26741                            ;
 n528                         25.7956         0.12298                            ;
 n529                         24.2409         0.99526                            ;
 n530                         19.3787         0.09806                            ;
 n531                         19.7982         0.10202                            ;
 n532                         20.9125          0.0519                            ;
 n533                         20.4687         0.34092                            ;
 n534                         25.5403          0.2056                            ;
 n535                         24.1334         0.04844                            ;
 n536                         22.7266         0.15966                            ;
 n537                         22.2569         0.09459                            ;
 n538                         19.0738         0.00036                            ;
 n539                          20.698         0.24257                            ;
 n540                         18.9223         0.23584                            ;
 n541                         19.1791         0.03454                            ;
 n542                         24.7933         0.13745                            ;
 n543                         23.2015          0.0036                            ;
 n544                         20.1273         0.33266                            ;
 n545                         19.7594         0.10656                            ;
 n546                         19.7716         0.02984                            ;
 n547                         19.7837         0.10942                            ;
 n548                         19.7959         0.34826                            ;
 n549                         19.5515          0.1373                            ;
 n550                         19.3558          0.1215                            ;
 n551                         25.5173         0.72785                            ;
 n552                         24.0293         0.07063                            ;
 n553                         19.9928         0.20137                            ;
 n554                         19.7778         0.04183                            ;
 n555                         19.5629         0.08489                            ;
 n556                         20.8791         0.05933                            ;
 n557                         25.1034         0.01296                            ;
 n558                         20.1175         0.07524                            ;
 n559                         19.9605          0.0563                            ;
 n560                         19.8035         0.02268                            ;
 n561                         19.6465         0.75888                            ;
 n562                         19.4841         0.25452                            ;
 n563                         20.0358         0.04885                            ;
 n564                         19.7966         0.24394                            ;
 n565                         19.5573         0.03427                            ;
 n566                         19.3181         0.01476                            ;
 n567                         25.3129         0.07182                            ;
 n568                         23.6078         0.38806                            ;
 n569                         20.2607          0.0644                            ;
 n570                         19.9147         0.22498                            ;
 n571                         19.5688         0.05234                            ;
 n572                         19.2228         0.10015                            ;
 n573                         20.5842         0.34387                            ;
 n574                         20.1088         0.02315                            ;
 n575                         19.6334               0                            ;
 n576                          19.158         0.47786                            ;
 n577                         25.7043         0.07227                            ;
 n578                         27.4739         0.13358                            ;
 n579                         26.1646         0.14881                            ;
 n580                         20.7618         0.04747                            ;
 n581                         18.2994         0.11736                            ;
 n582                          17.564         0.09227                            ;
 n583                         26.3222         0.00144                            ;
 n584                         25.1646         0.14015                            ;
 n585                         24.0069         0.13651                            ;
 n586                         24.9275         0.13882                            ;
 n587                          22.375         0.11477                            ;
 n588                          20.983         0.14364                            ;
 n589                            18.7               0                            ;
 n590                           17.64               0                            ;
 n591                         16.7042         0.02189                            ;
 n592                         19.1676         0.02113                            ;
 n593                         18.5126          0.0515                            ;
 n594                         17.8575         0.12866                            ;
 n595                         17.2025         0.12753                            ;
 n596                         19.4271               0                            ;
 n597                         19.0316         0.00324                            ;
 n598                         18.6362         0.02315                            ;
 n599                         22.6452         0.37606                            ;
 n600                         22.4412         0.12274                            ;
 n601                         22.2372         0.15388                            ;
 n602                          21.313         0.39521                            ;
 n603                         19.7769               0                            ;
 n604                         16.5252         0.00612                            ;
 n605                         16.5029               0                            ;
 n606                         16.4806         0.02032                            ;
 n607                         16.4583               0                            ;
 n608                         16.7894               0                            ;
 n609                         17.0313               0                            ;
 n610                         17.2732          0.0108                            ;
 n611                          17.515               0                            ;
 n612                         17.7569         0.00252                            ;
 n613                         17.9988         0.01476                            ;
 n614                         18.6734         0.29599                            ;
 n615                         17.7895         0.00324                            ;
 n616                         17.3383         0.01512                            ;
 n617                         16.8872         0.01332                            ;
 n618                         20.5696         0.03953                            ;
 n619                         17.6656         0.00216                            ;
 n620                         17.3876               0                            ;
 n621                         17.1096               0                            ;
 n622                         16.6338          0.0026                            ;
 n623                          7.0127               0                            ;
 n624                          2.4028               0                            ;
 n625                           5.003               0                            ;
 n626                          4.6304               0                            ;
 n627                         30.1764         0.32584                            ;
 n628                         28.8837         0.25427                            ;
 n629                         28.1669         0.16936                            ;
 n630                         28.2551         0.18436                            ;
 n631                         28.3259          0.0797                            ;
 n632                         30.3596         0.18095                            ;
 n633                         29.9669         0.09383                            ;
 n634                         29.5743         0.51797                            ;
 n635                         29.1816         0.24872                            ;
 n636                         28.7889         0.00648                            ;
 n637                         26.9784         0.08255                            ;
 n638                         25.8984         0.08444                            ;
 n639                         24.8183          0.0743                            ;
 n640                         23.7382         0.08086                            ;
 n641                         22.6582         0.21046                            ;
 n642                         27.9316         0.10836                            ;
 n643                         27.3003         0.12758                            ;
 n644                          26.669         0.11327                            ;
 n645                         28.3274         0.01512                            ;
 n646                         28.0918         0.13817                            ;
 n647                         27.8563         0.11945                            ;
 n648                         27.6207         0.05697                            ;
 n649                         26.2097         0.15446                            ;
 n650                          25.508         0.10354                            ;
 n651                         24.8064         0.15575                            ;
 n652                         26.2057         0.16985                            ;
 n653                         24.6559         0.03899                            ;
 n654                         23.8118         0.12514                            ;
 n655                         24.6738         0.20369                            ;
 n656                         23.8476         0.09652                            ;
 n657                         23.0215         0.43756                            ;
 n658                         28.0958           0.202                            ;
 n659                         28.7008         0.20759                            ;
 n660                         29.0054         0.33889                            ;
 n661                          27.781         0.27329                            ;
 n662                         26.7555         0.23771                            ;
 n663                         25.7299         0.06759                            ;
 n664                         27.6828         0.16389                            ;
 n665                         26.7047          0.2192                            ;
 n666                         25.7265         0.17597                            ;
 n667                           2.061           0.009                            ;
 n668                         30.0982         0.32274                            ;
 n669                         30.8863         0.22964                            ;
 n670                         31.6745         0.14859                            ;
 n671                         32.4627         0.24548                            ;
 n672                         33.2508          0.2115                            ;
 n673                         20.4117          0.0639                            ;
 n674                          19.523         0.21424                            ;
 n675                         18.6344         0.03845                            ;
 n676                         22.8211         0.55181                            ;
 n677                          20.783         0.04903                            ;
 n678                         28.3769         0.10346                            ;
 n679                         27.1045         0.20612                            ;
 n680                          25.887         0.21123                            ;
 n681                          17.846          0.1456                            ;
 n682                         18.9914          0.1811                            ;
 n683                         22.4444         0.59054                            ;
 n684                          25.358         0.10836                            ;
 n685                         26.0464         0.04671                            ;
 n686                         26.7349         0.20038                            ;
 n687                         20.3948         0.09657                            ;
 n688                         20.9906         0.19332                            ;
 n689                         26.2324         0.07133                            ;
 n690                         26.2995         0.07258                            ;
 n691                         20.4792          0.0882                            ;
 n692                          34.181         0.26946                            ;
 n693                          34.323         0.27292                            ;
 n694                          34.465         0.29146                            ;
 n695                         34.6069         0.29072                            ;
 n696                         34.7489         0.10368                            ;
 n697                         20.2449         0.15174                            ;
 n698                         20.3531         0.26723                            ;
 n699                         24.5476         0.14906                            ;
 n700                         24.5862         0.15062                            ;
 n701                         32.9247         0.13658                            ;
 n702                         32.9845         0.19136                            ;
 n703                         22.9922          0.0479                            ;
 n704                         23.5364         0.09547                            ;
 n705                         24.0805         0.29862                            ;
 n706                         21.6881         0.04453                            ;
 n707                         21.1078         0.08922                            ;
 n708                         31.0475         0.14521                            ;
 n709                         30.3159         0.04804                            ;
 n710                         30.1369         0.01728                            ;
 n711                         29.9578         0.00828                            ;
 n712                         29.7788         0.21305                            ;
 n713                         20.6779         0.11352                            ;
 n714                         20.8947          0.0982                            ;
 n715                         21.1114         0.00324                            ;
 n716                         21.3281         0.14767                            ;
 n717                         21.5449         0.00864                            ;
 n718                          28.921         0.18054                            ;
 n719                         28.8032         0.31705                            ;
 n720                         28.6854         0.22514                            ;
 n721                         28.5676         0.05445                            ;
 n722                         28.4498         0.15919                            ;
 n723                          28.332         0.20178                            ;
 n724                         33.0223         0.22057                            ;
 n725                         33.0001         0.14679                            ;
 n726                         27.3736         0.05683                            ;
 n727                         27.3008         0.12897                            ;
 n728                         27.2281         0.06043                            ;
 n729                         27.1553         0.21222                            ;
 n730                         27.0826         0.21078                            ;
 n731                         27.0098         0.16603                            ;
 n732                         26.6199         0.19442                            ;
 n733                         25.5195         0.16639                            ;
 n734                         24.5197         0.28901                            ;
 n735                         31.0251         0.11669                            ;
 n736                         31.2227         0.15286                            ;
 n737                         32.5873          0.1422                            ;
 n738                         33.5907         0.08822                            ;
 n739                         32.2906         0.18097                            ;
 n740                         30.9904         0.19595                            ;
 n741                         26.6121         0.13399                            ;
 n742                         26.5037          0.1262                            ;
 n743                         26.3954         0.21884                            ;
 n744                          26.287         0.36697                            ;
 n745                         26.1786         0.12764                            ;
 n746                         33.9145         0.12474                            ;
 n747                         33.0513         0.21542                            ;
 n748                         32.1881         0.21263                            ;
 n749                         31.3249         0.14033                            ;
 n750                         22.8362         0.12888                            ;
 n751                         25.4005          0.2079                            ;
 n752                         25.3141         0.06732                            ;
 n753                         25.2277         0.23899                            ;
 n754                         25.1414         0.05933                            ;
 n755                          25.055         0.19814                            ;
 n756                         23.6439         0.02664                            ;
 n757                         23.6039         0.13586                            ;
 n758                         30.5101         0.12118                            ;
 n759                         22.9823         0.09248                            ;
 n760                         22.1832        0.084672                            ;
 n761                         21.8293         0.03337                            ;
 n762                         23.1804         0.09943                            ;
 n763                         23.8108         0.03796                            ;
 n764                         24.0578         0.18799                            ;
 n765                         29.5921         0.02531                            ;
 n766                         28.7224         0.17129                            ;
 n767                         27.8528         0.09022                            ;
 n768                         26.9832         0.23267                            ;
 n769                         26.1136         0.29635                            ;
 n770                         25.2439         0.02412                            ;
 n771                         21.9296               0                            ;
 n772                         21.9622         0.15379                            ;
 n773                         21.9948         0.10224                            ;
 n774                           23.65               0                            ;
 n775                         22.4765         0.00828                            ;
 n776                          28.775         0.61088                            ;
 n777                            25.5         0.08503                            ;
 n778                           27.92               0                            ;
 n779                           27.64         0.14353                            ;
 n780                            26.4         0.10084                            ;
 n781                            24.6          0.0342                            ;
 n782                           25.08         0.10163                            ;

[RESERVOIRS]
;ID                                   Head                  Pattern
 R1                               100                            ;
 R2                               100                            ;
 T1                            102.68                            ;

[TANKS]
;ID                              Elevation           Init Level            Min Level            Max Level             Diameter           Min Volume Volume Curve         Overflow            

[PIPES]
;ID                   Node1                Node2                              Length             Diameter            Roughness           Minor Loss               Status
 p1                   n62                  n61                          26.9292             200             140               0                 Open   ;
 p2                   n66                  n64                          14.3481             150             120               0                 Open   ;
 p3                   n86                  n90                          50.1267             200             140               0                 Open   ;
 p4                   n71                  n70                          29.2259             100             120               0                 Open   ;
 p5                   n3                   n2                           23.7879             100             140               0                 Open   ;
 p6                   n12                  n14                          31.2114             100             140               0                 Open   ;
 p7                   n6                   n9                           43.3995             100             140               0                 Open   ;
 p8                   n22                  n30                          53.0045             100             140               0                 Open   ;
 p9                   n67                  n66                          53.1261             150             120               0                 Open   ;
 p10                  n46                  n48                          62.6501             100             140               0                 Open   ;
 p11                  n7                   n10                          68.3713             100             140               0                 Open   ;
 p12                  n9                   n4                           70.3494             100             140               0                 Open   ;
 p13                  n31                  n27                          49.4422             100             140               0                 Open   ;
 p14                  n14                  n16                          34.2032             100             140               0                 Open   ;
 p15                  n15                  n16                          72.2253             100             140               0                 Open   ;
 p16                  n16                  n18                          50.1237             100             140               0                 Open   ;
 p17                  n18                  n20                          54.2489             100             140               0                 Open   ;
 p18                  n18                  n24                           65.191             100             140               0                 Open   ;
 p19                  n21                  n25                          56.4633             100             140               0                 Open   ;
 p20                  n26                  n28                          29.6436             100             140               0                 Open   ;
 p21                  n27                  n34                          47.7731             100             140               0                 Open   ;
 p22                  n28                  n33                          43.8692             100             140               0                 Open   ;
 p23                  n29                  n32                          18.6286             100             140               0                 Open   ;
 p24                  n32                  n36                          50.1077             100             140               0                 Open   ;
 p25                  n33                  n35                          72.5123             100             140               0                 Open   ;
 p26                  n34                  n37                          60.0953             100             140               0                 Open   ;
 p27                  n35                  n38                          38.7224             100             140               0                 Open   ;
 p28                  n36                  n41                          42.5986             100             140               0                 Open   ;
 p29                  n37                  n45                          63.0851             100             140               0                 Open   ;
 p30                  n37                  n39                          49.6992             100             140               0                 Open   ;
 p31                  n40                  n42                          48.2914             100             140               0                 Open   ;
 p32                  n42                  n43                          41.6678             100             140               0                 Open   ;
 p33                  n43                  n45                          40.4763             100             140               0                 Open   ;
 p34                  n50                  n55                          59.8532             100             140               0                 Open   ;
 p35                  n51                  n53                          43.4704             100             120               0                 Open   ;
 p36                  n52                  n56                          54.7204             150             120               0                 Open   ;
 p37                  n54                  n57                          70.2049             100             120               0                 Open   ;
 p38                  n60                  n61                           9.2891             100             140               0                 Open   ;
 p39                  n61                  n65                          36.1551             200             140               0                 Open   ;
 p40                  n62                  n64                          38.8374             150             120               0                 Open   ;
 p41                  n63                  n65                          31.0239             100             140               0                 Open   ;
 p42                  n72                  n73                          21.0441             100             120               0                 Open   ;
 p43                  n73                  n74                          23.5016             100             120               0                 Open   ;
 p44                  n74                  n76                          67.8761             100             120               0                 Open   ;
 p45                  n76                  n78                          70.0781             100             120               0                 Open   ;
 p46                  n77                  n79                          25.3446             100             120               0                 Open   ;
 p47                  n78                  n80                          47.5553             100             120               0                 Open   ;
 p48                  n79                  n81                          53.1109             100             120               0                 Open   ;
 p49                  n85                  n86                          24.2068             200             140               0                 Open   ;
 p50                  n89                  n91                          50.8867             100             120               0                 Open   ;
 p51                  n91                  n92                          24.2356             100             120               0                 Open   ;
 p52                  n91                  n88                          47.5179             100             120               0                 Open   ;
 p53                  n238                 n235                         27.4204             100             140               0                 Open   ;
 p54                  n278                 n279                         12.2248             100             140               0                 Open   ;
 p55                  n267                 n269                         33.1081             100             140               0                 Open   ;
 p56                  n310                 n312                         12.2948             100             140               0                 Open   ;
 p57                  n218                 n219                         51.5234             150             140               0                 Open   ;
 p58                  n277                 n278                         16.8101             100             140               0                 Open   ;
 p59                  n268                 n273                         57.0476             100             140               0                 Open   ;
 p60                  n309                 n308                         19.5812             100             140               0                 Open   ;
 p61                  n280                 n286                         54.3635             100             140               0                 Open   ;
 p62                  n275                 n280                         37.5392             100             140               0                 Open   ;
 p63                  n280                 n283                         65.7292             100             140               0                 Open   ;
 p64                  n293                 n294                          6.6814             100             140               0                 Open   ;
 p65                  n287                 n291                         30.0446             100             120               0                 Open   ;
 p66                  n245                 n240                         42.5781             100             140               0                 Open   ;
 p67                  n250                 n249                           5.017             100             140               0                 Open   ;
 p68                  n258                 n259                         10.1846             100             140               0                 Open   ;
 p69                  n314                 n316                         22.3779             100             140               0                 Open   ;
 p70                  n302                 n297                         47.7865             100             140               0                 Open   ;
 p71                  n328                 n327                         22.9926             100             140               0                 Open   ;
 p72                  n242                 n246                         43.0228             150             120               0                 Open   ;
 p73                  n236                 n242                         42.5596             150             120               0                 Open   ;
 p74                  n233                 n236                         57.4031             150             120               0                 Open   ;
 p75                  n231                 n233                         22.0221             150             120               0                 Open   ;
 p76                  n227                 n231                         38.0635             150             120               0                 Open   ;
 p77                  n302                 n301                          5.4292              63             140               0                 Open   ;
 p78                  n254                 n253                          9.2131              63             120               0                 Open   ;
 p79                  n222                 n221                          4.5125             150             140               0                 Open   ;
 p80                  n235                 n239                         55.3305             100             140               0                 Open   ;
 p81                  n126                 n121                         60.0801              75             140               0                 Open   ;
 p82                  n121                 n118                         15.9998             100             140               0                 Open   ;
 p83                  n177                 n175                         13.3385             100             140               0                 Open   ;
 p84                  n162                 n159                         22.9046             100             140               0                 Open   ;
 p85                  n193                 n190                         16.4364             100             140               0                 Open   ;
 p86                  n150                 n153                         23.6026              63             120               0                 Open   ;
 p87                  n156                 n157                         38.8514             150             140               0                 Open   ;
 p88                  n168                 n171                         22.9683             150             140               0                 Open   ;
 p89                  n141                 n133                         65.8594             150             140               0                 Open   ;
 p90                  n122                 n120                         18.0551             150             140               0                 Open   ;
 p91                  n145                 n146                          5.3428             150             140               0                 Open   ;
 p92                  n109                 n107                          7.0501             160             140               0                 Open   ;
 p93                  n189                 n188                         19.7515             160             140               0                 Open   ;
 p94                  n194                 n193                         19.3019             100             140               0                 Open   ;
 p95                  n94                  n97                          51.7831             100             140               0                 Open   ;
 p96                  n96                  n99                          63.2939             100             140               0                 Open   ;
 p97                  n99                  n102                         66.9802             100             140               0                 Open   ;
 p98                  n101                 n103                         22.7331             100             140               0                 Open   ;
 p99                  n102                 n106                         60.7132             100             140               0                 Open   ;
 p100                 n102                 n107                         39.3009             100             140               0                 Open   ;
 p101                 n103                 n107                         51.6094             160             140               0                 Open   ;
 p102                 n104                 n114                         69.3344             100             140               0                 Open   ;
 p103                 n104                 n108                         47.1926             100             140               0                 Open   ;
 p104                 n105                 n113                         52.1526             150             140               0                 Open   ;
 p105                 n110                 n115                         50.1743             100             140               0                 Open   ;
 p106                 n110                 n112                         20.2696             100             140               0                 Open   ;
 p107                 n113                 n120                         39.6039             150             140               0                 Open   ;
 p108                 n114                 n116                         17.9183             100             140               0                 Open   ;
 p109                 n114                 n119                         25.9671             100             140               0                 Open   ;
 p110                 n115                 n111                         69.0704             200             140               0                 Open   ;
 p111                 n116                 n125                         67.3462             100             140               0                 Open   ;
 p112                 n127                 n131                         42.3661              63             140               0                 Open   ;
 p113                 n134                 n137                         59.1164             150             140               0                 Open   ;
 p114                 n136                 n147                         73.5155             100             140               0                 Open   ;
 p115                 n138                 n143                         59.6311             100             140               0                 Open   ;
 p116                 n139                 n135                         35.1911             100             140               0                 Open   ;
 p117                 n140                 n144                         60.9268             100             140               0                 Open   ;
 p118                 n141                 n145                         65.2915             150             140               0                 Open   ;
 p119                 n144                 n155                         58.0354             100             140               0                 Open   ;
 p120                 n146                 n149                         46.7217             150             140               0                 Open   ;
 p121                 n147                 n148                         39.1766             150             140               0                 Open   ;
 p122                 n148                 n151                         37.0322             150             140               0                 Open   ;
 p123                 n155                 n159                         44.4612             100             140               0                 Open   ;
 p124                 n157                 n160                         50.3933             150             140               0                 Open   ;
 p125                 n160                 n164                         49.2863             150             140               0                 Open   ;
 p126                 n161                 n163                         35.6826             100             140               0                 Open   ;
 p127                 n162                 n169                         61.3236             100             140               0                 Open   ;
 p128                 n166                 n168                         15.6697             150             140               0                 Open   ;
 p129                 n167                 n170                         21.5927             100             140               0                 Open   ;
 p130                 n169                 n176                         74.8142             100             140               0                 Open   ;
 p131                 n170                 n174                         64.0853             100             140               0                 Open   ;
 p132                 n171                 n173                          39.144             150             140               0                 Open   ;
 p133                 n172                 n175                         52.9645             100             140               0                 Open   ;
 p134                 n173                 n174                         27.4612             150             140               0                 Open   ;
 p135                 n177                 n179                         40.5201             100             140               0                 Open   ;
 p136                 n178                 n180                         34.5469             100             140               0                 Open   ;
 p137                 n183                 n185                         36.7448             160             140               0                 Open   ;
 p138                 n180                 n186                          59.382             100             140               0                 Open   ;
 p139                 n180                 n181                         33.9307             100             140               0                 Open   ;
 p140                 n186                 n192                         47.4653             100             140               0                 Open   ;
 p141                 n189                 n195                         70.2576             160             140               0                 Open   ;
 p142                 n192                 n196                         55.1296             100             140               0                 Open   ;
 p143                 n197                 n199                         72.4956             160             140               0                 Open   ;
 p144                 n201                 n202                         28.0628             100             140               0                 Open   ;
 p145                 n205                 n206                         38.1162             100             120               0                 Open   ;
 p146                 n205                 n208                         54.0342             100             120               0                 Open   ;
 p147                 n217                 n215                         66.2774             100             120               0                 Open   ;
 p148                 n209                 n210                         47.8699             100             120               0                 Open   ;
 p149                 n209                 n211                         40.1662             100             120               0                 Open   ;
 p150                 n210                 n213                         63.0672             100             120               0                 Open   ;
 p151                 n212                 n216                         63.0563             100             120               0                 Open   ;
 p152                 n212                 n215                         74.4208             100             120               0                 Open   ;
 p153                 n221                 n223                         48.5425             100             140               0                 Open   ;
 p154                 n223                 n224                          60.488             100             140               0                 Open   ;
 p155                 n226                 n227                         23.4907             150             120               0                 Open   ;
 p156                 n228                 n232                          60.668             100             140               0                 Open   ;
 p157                 n231                 n234                         27.7914             100             120               0                 Open   ;
 p158                 n232                 n235                         61.2183             100             140               0                 Open   ;
 p159                 n233                 n237                         39.5957             100             120               0                 Open   ;
 p160                 n236                 n243                         38.8919             100             120               0                 Open   ;
 p161                 n239                 n241                         34.4356             100             140               0                 Open   ;
 p162                 n242                 n247                         43.5216             100             120               0                 Open   ;
 p163                 n244                 n251                         63.9285             150             140               0                 Open   ;
 p164                 n248                 n249                         51.2817             100             140               0                 Open   ;
 p165                 n250                 n257                         59.3324             100             140               0                 Open   ;
 p166                 n252                 n258                          56.564             100             140               0                 Open   ;
 p167                 n260                 n256                         23.5371             100             140               0                 Open   ;
 p168                 n262                 n267                         49.0169             100             140               0                 Open   ;
 p169                 n269                 n273                         71.5203             100             140               0                 Open   ;
 p170                 n270                 n276                         67.6756             100             140               0                 Open   ;
 p171                 n271                 n274                         49.2362             100             140               0                 Open   ;
 p172                 n274                 n281                         55.4012             100             140               0                 Open   ;
 p173                 n281                 n282                         53.2009             100             140               0                 Open   ;
 p174                 n282                 n286                         46.4828             100             140               0                 Open   ;
 p175                 n283                 n289                         41.9889             100             140               0                 Open   ;
 p176                 n284                 n293                         58.7628             100             140               0                 Open   ;
 p177                 n284                 n290                         72.2297             100             140               0                 Open   ;
 p178                 n289                 n293                         53.0485             100             140               0                 Open   ;
 p179                 n291                 n292                         19.8689             100             120               0                 Open   ;
 p180                 n292                 n295                         34.2525             100             120               0                 Open   ;
 p181                 n292                 n296                         32.9042             100             120               0                 Open   ;
 p182                 n298                 n300                         37.7973             200             140               0                 Open   ;
 p183                 n299                 n305                         62.7307             100             140               0                 Open   ;
 p184                 n301                 n308                         68.0909             100             140               0                 Open   ;
 p185                 n305                 n306                         55.5132             100             140               0                 Open   ;
 p186                 n311                 n316                         61.1814             100             120               0                 Open   ;
 p187                 n312                 n313                         54.0415             100             140               0                 Open   ;
 p188                 n314                 n319                         61.1475             100             140               0                 Open   ;
 p189                 n316                 n320                         55.1111             100             140               0                 Open   ;
 p190                 n317                 n321                         40.8704             100             140               0                 Open   ;
 p191                 n322                 n323                          54.231             100             140               0                 Open   ;
 p192                 n325                 n326                         39.7874             100             140               0                 Open   ;
 p193                 n326                 n327                         62.6495             100             140               0                 Open   ;
 p194                 n328                 n331                         54.3392             100             140               0                 Open   ;
 p195                 n246                 n217                         74.5207             100             120               0                 Open   ;
 p196                 n95                  n98                          55.8465             100             140               0                 Open   ;
 p197                 n122                 n124                         33.8464             150             140               0                 Open   ;
 p198                 n130                 n133                         69.1173             150             140               0                 Open   ;
 p199                 n137                 n142                         74.0429             150             140               0                 Open   ;
 p200                 n154                 n156                         37.7536             150             140               0                 Open   ;
 p201                 n163                 n167                         51.6878             100             140               0                 Open   ;
 p202                 n164                 n166                         64.5793             150             140               0                 Open   ;
 p203                 n174                 n178                          54.529             150             140               0                 Open   ;
 p204                 n179                 n183                         32.4311             100             140               0                 Open   ;
 p205                 n181                 n182                         34.7762             100             140               0                 Open   ;
 p206                 n185                 n188                          39.046             160             140               0                 Open   ;
 p207                 n208                 n209                         27.4545             100             120               0                 Open   ;
 p208                 n221                 n220                         69.3527             150             140               0                 Open   ;
 p209                 n241                 n244                           55.53             100             140               0                 Open   ;
 p210                 n245                 n249                         56.5037             100             140               0                 Open   ;
 p211                 n251                 n255                         30.3174             150             140               0                 Open   ;
 p212                 n260                 n261                         52.1305             100             140               0                 Open   ;
 p213                 n263                 n267                         60.9402             100             140               0                 Open   ;
 p214                 n264                 n266                          25.095             150             140               0                 Open   ;
 p215                 n273                 n277                         67.4312             100             140               0                 Open   ;
 p216                 n304                 n307                         42.8233             100             120               0                 Open   ;
 p217                 n306                 n308                         27.4846             100             140               0                 Open   ;
 p218                 n309                 n310                         41.4415             100             140               0                 Open   ;
 p219                 n315                 n317                         54.9136             100             140               0                 Open   ;
 p220                 n320                 n322                         69.6172             100             140               0                 Open   ;
 p221                 n323                 n324                         65.9838             100             140               0                 Open   ;
 p222                 n324                 n325                         47.8129             100             140               0                 Open   ;
 p223                 n103                 n105                         19.5107             150             140               0                 Open   ;
 p224                 n136                 n334                         35.8554             100             140               0                 Open   ;
 p225                 n334                 n333                         40.9309             100             140               0                 Open   ;
 p226                 n332                 n143                         37.6644             100             140               0                 Open   ;
 p227                 R1                   n303                         26.9092             200             140               0                 Open   ;
 p228                 n130                 n128                         46.7558             150             140               0                 Open   ;
 p229                 n129                 n69                          59.6365             100             120               0                 Open   ;
 p230                 n67                  n70                          73.0176             100             120               0                 Open   ;
 p231                 n144                 n80                          46.5731             100             140               0                 Open   ;
 p232                 n184                 n191                          74.298             100             140               0                 Open   ;
 p233                 n152                 n158                         52.2341             100             140               0                 Open   ;
 p234                 n124                 n128                         45.6381             150             140               0                 Open   ;
 p235                 R2                   n336                          36.178             200             140               0                 Open   ;
 p236                 n210                 n212                         65.9148             100             120               0                 Open   ;
 p237                 n341                 n198                         61.9464             100             140               0                 Open   ;
 p238                 n151                 n154                         42.6918             150             140               0                 Open   ;
 p239                 T1                   n343                         26.9887             200             140               0                 Open   ;
 p240                 n343                 n44                          23.9926             200             140               0                 Open   ;
 p241                 n5                   n8                            52.157             100             140               0                 Open   ;
 p242                 n8                   n11                          62.8657             100             140               0                 Open   ;
 p243                 n11                  n13                          58.9374             100             140               0                 Open   ;
 p244                 n13                  n17                          72.0893             100             140               0                 Open   ;
 p245                 n17                  n21                          73.4228             100             140               0                 Open   ;
 p246                 n10                  n344                         66.1972             100             140               0                 Open   ;
 p247                 n344                 n15                          62.8912             100             140               0                 Open   ;
 p248                 n24                  n346                         56.5717             100             140               0                 Open   ;
 p249                 n345                 n29                          60.1765             100             140               0                 Open   ;
 p250                 n19                  n345                         63.0229             100             140               0                 Open   ;
 p251                 n23                  n31                           48.454             100             140               0                 Open   ;
 p252                 n20                  n23                          61.1031             100             140               0                 Open   ;
 p253                 n1                   n347                          68.097             100             140               0                 Open   ;
 p254                 n347                 n348                         45.4723             100             140               0                 Open   ;
 p255                 n348                 n349                         50.5431             100             140               0                 Open   ;
 p256                 n349                 n350                         50.0042             100             140               0                 Open   ;
 p257                 n350                 n351                         45.6975             100             140               0                 Open   ;
 p258                 n351                 n7                           54.9718             100             140               0                 Open   ;
 p259                 n2                   n352                         45.9778             100             140               0                 Open   ;
 p260                 n352                 n10                          45.9758             100             140               0                 Open   ;
 p261                 n3                   n353                         47.9576             100             140               0                 Open   ;
 p262                 n353                 n354                         46.1673             100             140               0                 Open   ;
 p263                 n354                 n344                         46.6814             100             140               0                 Open   ;
 p264                 n5                   n355                         58.9057             100             140               0                 Open   ;
 p265                 n355                 n356                         47.8409             100             140               0                 Open   ;
 p266                 n356                 n12                          42.6386             100             140               0                 Open   ;
 p267                 n6                   n357                         44.7387             100             140               0                 Open   ;
 p268                 n357                 n14                          74.2158             100             140               0                 Open   ;
 p269                 n7                   n358                         54.8852             100             140               0                 Open   ;
 p270                 n358                 n359                         54.8734             100             140               0                 Open   ;
 p271                 n359                 n22                          54.8852             100             140               0                 Open   ;
 p272                 n8                   n360                         54.4422             100             140               0                 Open   ;
 p273                 n360                 n361                         54.4379             100             140               0                 Open   ;
 p274                 n361                 n20                          54.4422             100             140               0                 Open   ;
 p275                 n10                  n362                          55.052             100             140               0                 Open   ;
 p276                 n362                 n363                         42.0531             100             140               0                 Open   ;
 p277                 n363                 n19                          52.7753             100             140               0                 Open   ;
 p278                 n11                  n364                         49.2109             100             140               0                 Open   ;
 p279                 n364                 n365                          49.202             100             140               0                 Open   ;
 p280                 n365                 n23                          49.2109             100             140               0                 Open   ;
 p281                 n13                  n366                         46.9238             100             140               0                 Open   ;
 p282                 n366                 n367                         46.9108             100             140               0                 Open   ;
 p283                 n367                 n26                          46.9238             100             140               0                 Open   ;
 p284                 n15                  n368                         40.9555             100             140               0                 Open   ;
 p285                 n368                 n345                         40.9555             100             140               0                 Open   ;
 p286                 n17                  n369                         41.7936             100             140               0                 Open   ;
 p287                 n369                 n370                         41.7842             100             140               0                 Open   ;
 p288                 n370                 n33                          41.7936             100             140               0                 Open   ;
 p289                 n19                  n371                         44.3754             100             140               0                 Open   ;
 p290                 n371                 n344                          44.388             100             140               0                 Open   ;
 p291                 n20                  n372                         52.1064             100             140               0                 Open   ;
 p292                 n372                 n27                          31.2938             100             140               0                 Open   ;
 p293                 n21                  n373                         56.6909             100             140               0                 Open   ;
 p294                 n373                 n35                          56.6782             100             140               0                 Open   ;
 p295                 n22                  n374                         45.2612             100             140               0                 Open   ;
 p296                 n374                 n375                         45.2612             100             140               0                 Open   ;
 p297                 n375                 n376                         45.2708             100             140               0                 Open   ;
 p298                 n376                 n29                          45.2612             100             140               0                 Open   ;
 p299                 n23                  n377                          37.911             100             140               0                 Open   ;
 p300                 n377                 n26                            37.92             100             140               0                 Open   ;
 p301                 n24                  n378                         42.1213             100             140               0                 Open   ;
 p302                 n378                 n379                         42.1282             100             140               0                 Open   ;
 p303                 n379                 n345                         42.1213             100             140               0                 Open   ;
 p304                 n28                  n380                         51.8914             100             140               0                 Open   ;
 p305                 n380                 n42                          51.8798             100             140               0                 Open   ;
 p306                 n30                  n381                         49.2268             100             140               0                 Open   ;
 p307                 n381                 n382                         49.2364             100             140               0                 Open   ;
 p308                 n382                 n383                         49.2241             100             140               0                 Open   ;
 p309                 n383                 n36                          49.2364             100             140               0                 Open   ;
 p310                 n32                  n384                         54.2583             100             140               0                 Open   ;
 p311                 n384                 n346                         54.2656             100             140               0                 Open   ;
 p312                 n34                  n385                         37.8059             100             140               0                 Open   ;
 p313                 n385                 n346                         37.8079             100             140               0                 Open   ;
 p314                 n38                  n386                         58.7666             100             140               0                 Open   ;
 p315                 n386                 n40                          58.7569             100             140               0                 Open   ;
 p316                 n44                  n387                         48.3058             200             140               0                 Open   ;
 p317                 n387                 n388                         48.3053             200             140               0                 Open   ;
 p318                 n388                 n45                          48.3058             200             140               0                 Open   ;
 p319                 n44                  n389                         41.9903             100             140               0                 Open   ;
 p320                 n389                 n346                         41.9919             100             140               0                 Open   ;
 p321                 n47                  n390                         31.6244             100             140               0                 Open   ;
 p322                 n390                 n391                          59.993             100             140               0                 Open   ;
 p323                 n391                 n392                         48.7937             100             140               0                 Open   ;
 p324                 n392                 n60                          46.2596             100             140               0                 Open   ;
 p325                 n47                  n393                         50.5907             100             140               0                 Open   ;
 p326                 n393                 n394                         50.5858             100             140               0                 Open   ;
 p327                 n394                 n395                         50.5907             100             140               0                 Open   ;
 p328                 n395                 n396                         50.5858             100             140               0                 Open   ;
 p329                 n396                 n397                          50.582             100             140               0                 Open   ;
 p330                 n397                 n398                         50.5858             100             140               0                 Open   ;
 p331                 n398                 n399                         50.5907             100             140               0                 Open   ;
 p332                 n399                 n75                          50.5858             100             140               0                 Open   ;
 p333                 n48                  n400                         50.2578             100             140               0                 Open   ;
 p334                 n400                 n401                          50.254             100             140               0                 Open   ;
 p335                 n401                 n59                          50.2578             100             140               0                 Open   ;
 p336                 n48                  n402                           44.39             100             140               0                 Open   ;
 p337                 n402                 n403                         47.1041             100             140               0                 Open   ;
 p338                 n403                 n404                         55.5457             100             140               0                 Open   ;
 p339                 n404                 n50                          39.5692             100             140               0                 Open   ;
 p340                 n49                  n405                         45.5401             100             120               0                 Open   ;
 p341                 n405                 n57                          45.5271             100             120               0                 Open   ;
 p342                 n51                  n406                         40.1571             100             120               0                 Open   ;
 p343                 n406                 n58                          40.1436             100             120               0                 Open   ;
 p344                 n52                  n407                         53.4351             100             120               0                 Open   ;
 p345                 n407                 n58                           53.429             100             120               0                 Open   ;
 p346                 n54                  n408                         53.3182             200             140               0                 Open   ;
 p347                 n408                 n62                          53.3059             200             140               0                 Open   ;
 p348                 n55                  n409                         54.3413             100             140               0                 Open   ;
 p349                 n409                 n59                          54.3413             100             140               0                 Open   ;
 p350                 n55                  n410                         56.1843             100             140               0                 Open   ;
 p351                 n410                 n411                         56.1924             100             140               0                 Open   ;
 p352                 n411                 n68                          56.1843             100             140               0                 Open   ;
 p353                 n56                  n412                         50.8629             150             120               0                 Open   ;
 p354                 n412                 n413                         50.8589             150             120               0                 Open   ;
 p355                 n413                 n67                          50.8629             150             120               0                 Open   ;
 p356                 n57                  n414                         56.7688             100             120               0                 Open   ;
 p357                 n414                 n66                          56.7688             100             120               0                 Open   ;
 p358                 n58                  n415                         56.9344             100             120               0                 Open   ;
 p359                 n415                 n117                         56.9365             100             120               0                 Open   ;
 p360                 n59                  n416                         45.8457             100             140               0                 Open   ;
 p361                 n416                 n417                          45.842             100             140               0                 Open   ;
 p362                 n417                 n68                          45.8457             100             140               0                 Open   ;
 p363                 n62                  n418                         45.0275             150             140               0                 Open   ;
 p364                 n418                 n419                         45.0372             150             140               0                 Open   ;
 p365                 n419                 n72                          45.0275             150             140               0                 Open   ;
 p366                 n63                  n420                         50.3755             100             140               0                 Open   ;
 p367                 n420                 n421                         50.3705             100             140               0                 Open   ;
 p368                 n421                 n422                         50.3755             100             140               0                 Open   ;
 p369                 n422                 n423                         50.3668             100             140               0                 Open   ;
 p370                 n423                 n424                         50.3705             100             140               0                 Open   ;
 p371                 n424                 n82                          50.3755             100             140               0                 Open   ;
 p372                 n64                  n425                         44.8347             100             120               0                 Open   ;
 p373                 n425                 n426                         44.8216             100             120               0                 Open   ;
 p374                 n426                 n73                          44.8347             100             120               0                 Open   ;
 p375                 n65                  n427                         48.2043             200             140               0                 Open   ;
 p376                 n427                 n428                         48.0736             200             140               0                 Open   ;
 p377                 n428                 n429                         51.7523             200             140               0                 Open   ;
 p378                 n429                 n430                         47.3797             200             140               0                 Open   ;
 p379                 n430                 n431                         47.2886             200             140               0                 Open   ;
 p380                 n431                 n432                         48.3442             200             140               0                 Open   ;
 p381                 n432                 n433                         47.6579             200             140               0                 Open   ;
 p382                 n433                 n85                          47.8974             200             140               0                 Open   ;
 p383                 n68                  n434                         44.2086             100             140               0                 Open   ;
 p384                 n434                 n75                          44.2101             100             140               0                 Open   ;
 p385                 n69                  n435                         62.9855             100             120               0                 Open   ;
 p386                 n435                 n70                          45.7475             100             120               0                 Open   ;
 p387                 n72                  n436                         51.6169             150             140               0                 Open   ;
 p388                 n436                 n77                          51.6072             150             140               0                 Open   ;
 p389                 n74                  n437                         44.9696             100             120               0                 Open   ;
 p390                 n437                 n79                          44.9696             100             120               0                 Open   ;
 p391                 n75                  n438                         54.0942             100             140               0                 Open   ;
 p392                 n438                 n82                          54.0843             100             140               0                 Open   ;
 p393                 n76                  n439                         41.1824             100             120               0                 Open   ;
 p394                 n439                 n81                          41.1824             100             120               0                 Open   ;
 p395                 n77                  n440                         44.8541             150             140               0                 Open   ;
 p396                 n440                 n441                         44.8445             150             140               0                 Open   ;
 p397                 n441                 n442                         58.9926             150             140               0                 Open   ;
 p398                 n442                 n87                          33.7082             150             140               0                 Open   ;
 p399                 n78                  n443                          49.187             100             120               0                 Open   ;
 p400                 n443                 n444                         43.6626             100             120               0                 Open   ;
 p401                 n444                 n84                          42.9463             100             120               0                 Open   ;
 p402                 n80                  n445                         44.2564             100             140               0                 Open   ;
 p403                 n445                 n84                          44.2494             100             140               0                 Open   ;
 p404                 n81                  n446                         54.4589             100             120               0                 Open   ;
 p405                 n446                 n447                         46.7165             100             120               0                 Open   ;
 p406                 n447                 n448                         49.8495             100             120               0                 Open   ;
 p407                 n448                 n89                          47.0062             100             120               0                 Open   ;
 p408                 n82                  n449                         50.2513             100             140               0                 Open   ;
 p409                 n449                 n85                          50.2513             100             140               0                 Open   ;
 p410                 n83                  n450                         49.2875             100             140               0                 Open   ;
 p411                 n450                 n451                         49.2875             100             140               0                 Open   ;
 p412                 n451                 n90                          49.2875             100             140               0                 Open   ;
 p413                 n84                  n452                         49.8375             100             140               0                 Open   ;
 p414                 n452                 n453                         48.5855             100             140               0                 Open   ;
 p415                 n453                 n89                           48.353             100             140               0                 Open   ;
 p416                 n87                  n454                         49.4835             150             140               0                 Open   ;
 p417                 n454                 n455                         49.4898             150             140               0                 Open   ;
 p418                 n455                 n456                         49.4835             150             140               0                 Open   ;
 p419                 n456                 n457                         49.4898             150             140               0                 Open   ;
 p420                 n457                 n93                          49.4835             150             140               0                 Open   ;
 p421                 n89                  n458                         42.3914             100             140               0                 Open   ;
 p422                 n458                 n459                         47.8763             100             140               0                 Open   ;
 p423                 n459                 n460                         38.7107             100             140               0                 Open   ;
 p424                 n460                 n169                         55.5815             100             140               0                 Open   ;
 p425                 n90                  n461                           49.43             200             140               0                 Open   ;
 p426                 n461                 n462                         49.4395             200             140               0                 Open   ;
 p427                 n462                 n340                           49.43             200             140               0                 Open   ;
 p428                 n93                  n463                         46.1048             100             140               0                 Open   ;
 p429                 n463                 n464                         46.1134             100             140               0                 Open   ;
 p430                 n464                 n465                           46.11             100             140               0                 Open   ;
 p431                 n465                 n184                         46.1134             100             140               0                 Open   ;
 p432                 n93                  n466                         44.2888             150             140               0                 Open   ;
 p433                 n466                 n467                         44.2811             150             140               0                 Open   ;
 p434                 n467                 n342                         44.2888             150             140               0                 Open   ;
 p435                 n94                  n468                         61.2158             100             140               0                 Open   ;
 p436                 n468                 n98                          61.2244             100             140               0                 Open   ;
 p437                 n94                  n469                         59.0415             100             140               0                 Open   ;
 p438                 n469                 n470                         48.9692             100             140               0                 Open   ;
 p439                 n470                 n471                         38.2847             100             140               0                 Open   ;
 p440                 n471                 n95                           46.223             100             140               0                 Open   ;
 p441                 n95                  n472                         40.3008             100             140               0                 Open   ;
 p442                 n472                 n96                          40.3008             100             140               0                 Open   ;
 p443                 n96                  n473                         37.7905             100             140               0                 Open   ;
 p444                 n473                 n101                         37.7814             100             140               0                 Open   ;
 p445                 n97                  n474                         58.8701             100             140               0                 Open   ;
 p446                 n474                 n100                         58.8652             100             140               0                 Open   ;
 p447                 n97                  n475                         66.1955             100             140               0                 Open   ;
 p448                 n475                 n476                         46.3511             100             140               0                 Open   ;
 p449                 n476                 n110                         48.0382             100             140               0                 Open   ;
 p450                 n98                  n477                         42.1265             100             140               0                 Open   ;
 p451                 n477                 n101                         42.1206             100             140               0                 Open   ;
 p452                 n99                  n478                         45.3559             100             140               0                 Open   ;
 p453                 n478                 n479                         45.3559             100             140               0                 Open   ;
 p454                 n479                 n480                         45.3524             100             140               0                 Open   ;
 p455                 n480                 n481                         45.3559             100             140               0                 Open   ;
 p456                 n481                 n104                         45.3559             100             140               0                 Open   ;
 p457                 n100                 n482                         43.7858             100             140               0                 Open   ;
 p458                 n482                 n112                         43.7858             100             140               0                 Open   ;
 p459                 n100                 n483                         43.7708             100             140               0                 Open   ;
 p460                 n483                 n105                         43.7793             100             140               0                 Open   ;
 p461                 n106                 n484                         39.4389             100             140               0                 Open   ;
 p462                 n484                 n485                         48.8057             100             140               0                 Open   ;
 p463                 n485                 n116                         67.5757             100             140               0                 Open   ;
 p464                 n108                 n486                         47.1461             100             140               0                 Open   ;
 p465                 n486                 n118                         47.1471             100             140               0                 Open   ;
 p466                 n108                 n487                          41.838             100             140               0                 Open   ;
 p467                 n487                 n119                          41.838             100             140               0                 Open   ;
 p468                 n109                 n488                         51.9688             150             140               0                 Open   ;
 p469                 n488                 n489                         51.9688             150             140               0                 Open   ;
 p470                 n489                 n490                         51.9688             150             140               0                 Open   ;
 p471                 n490                 n125                         51.9688             150             140               0                 Open   ;
 p472                 n112                 n491                          41.677             100             140               0                 Open   ;
 p473                 n491                 n120                         41.6713             100             140               0                 Open   ;
 p474                 n113                 n492                          49.435             100             140               0                 Open   ;
 p475                 n492                 n493                         49.4306             100             140               0                 Open   ;
 p476                 n493                 n123                          49.435             100             140               0                 Open   ;
 p477                 n115                 n494                         46.8209             200             140               0                 Open   ;
 p478                 n494                 n124                         46.8291             200             140               0                 Open   ;
 p479                 n115                 n495                         44.8971             100             140               0                 Open   ;
 p480                 n495                 n128                         44.8925             100             140               0                 Open   ;
 p481                 n117                 n496                         56.0035             100             140               0                 Open   ;
 p482                 n496                 n497                         56.0175             100             140               0                 Open   ;
 p483                 n497                 n130                         56.0035             100             140               0                 Open   ;
 p484                 n117                 n498                         61.2154             100             140               0                 Open   ;
 p485                 n498                 n129                         61.2092             100             140               0                 Open   ;
 p486                 n119                 n499                          46.182             100             140               0                 Open   ;
 p487                 n499                 n127                         46.1819             100             140               0                 Open   ;
 p488                 n120                 n500                         50.5681             100             140               0                 Open   ;
 p489                 n500                 n501                          45.738             100             140               0                 Open   ;
 p490                 n501                 n502                          46.546             100             140               0                 Open   ;
 p491                 n502                 n136                         47.9078             100             140               0                 Open   ;
 p492                 n121                 n503                         41.1083             100             140               0                 Open   ;
 p493                 n503                 n127                         41.0942             100             140               0                 Open   ;
 p494                 n122                 n504                          57.655             100             140               0                 Open   ;
 p495                 n504                 n505                         57.6639             100             140               0                 Open   ;
 p496                 n505                 n334                          57.655             100             140               0                 Open   ;
 p497                 n123                 n506                         44.4234             100             140               0                 Open   ;
 p498                 n506                 n132                         63.4395             100             140               0                 Open   ;
 p499                 n123                 n507                         50.0966             100             140               0                 Open   ;
 p500                 n507                 n508                         50.0997             100             140               0                 Open   ;
 p501                 n508                 n509                         50.0966             100             140               0                 Open   ;
 p502                 n509                 n134                         50.0997             100             140               0                 Open   ;
 p503                 n124                 n510                         53.9955             100             140               0                 Open   ;
 p504                 n510                 n511                         54.0087             100             140               0                 Open   ;
 p505                 n511                 n333                         53.9955             100             140               0                 Open   ;
 p506                 n125                 n512                         46.7221             150             140               0                 Open   ;
 p507                 n512                 n513                         52.9434             150             140               0                 Open   ;
 p508                 n513                 n134                         51.5535             150             140               0                 Open   ;
 p509                 n126                 n514                          44.671             100             140               0                 Open   ;
 p510                 n514                 n515                         44.6784             100             140               0                 Open   ;
 p511                 n515                 n516                          44.671             100             140               0                 Open   ;
 p512                 n516                 n139                          44.671             100             140               0                 Open   ;
 p513                 n128                 n517                         51.3582             100             140               0                 Open   ;
 p514                 n517                 n518                          51.354             100             140               0                 Open   ;
 p515                 n518                 n332                         51.3582             100             140               0                 Open   ;
 p516                 n129                 n519                         54.3225             100             140               0                 Open   ;
 p517                 n519                 n140                         54.3143             100             140               0                 Open   ;
 p518                 n129                 n520                         49.2445             100             140               0                 Open   ;
 p519                 n520                 n521                         49.2586             100             140               0                 Open   ;
 p520                 n521                 n141                         49.2445             100             140               0                 Open   ;
 p521                 n130                 n522                         44.3503             100             140               0                 Open   ;
 p522                 n522                 n138                         44.3554             100             140               0                 Open   ;
 p523                 n132                 n523                         44.1281             100             140               0                 Open   ;
 p524                 n523                 n137                         44.1281             100             140               0                 Open   ;
 p525                 n132                 n524                         53.5583             100             140               0                 Open   ;
 p526                 n524                 n136                         53.5538             100             140               0                 Open   ;
 p527                 n138                 n525                         55.6634             100             140               0                 Open   ;
 p528                 n525                 n145                         55.6496             100             140               0                 Open   ;
 p529                 n139                 n526                         51.9983             100             140               0                 Open   ;
 p530                 n526                 n527                         51.9994             100             140               0                 Open   ;
 p531                 n527                 n152                         51.9983             100             140               0                 Open   ;
 p532                 n140                 n528                         47.4437             100             120               0                 Open   ;
 p533                 n528                 n529                         47.4412             100             120               0                 Open   ;
 p534                 n529                 n150                         47.4437             100             120               0                 Open   ;
 p535                 n142                 n530                         52.2005             100             140               0                 Open   ;
 p536                 n530                 n152                         52.1933             100             140               0                 Open   ;
 p537                 n142                 n531                         39.4283             150             140               0                 Open   ;
 p538                 n531                 n147                         39.4283             150             140               0                 Open   ;
 p539                 n143                 n532                         42.5989             100             140               0                 Open   ;
 p540                 n532                 n149                         42.5948             100             140               0                 Open   ;
 p541                 n143                 n533                         38.7756             100             140               0                 Open   ;
 p542                 n533                 n156                         38.7795             100             140               0                 Open   ;
 p543                 n144                 n534                         52.7663             100             140               0                 Open   ;
 p544                 n534                 n535                         52.9968             100             140               0                 Open   ;
 p545                 n535                 n536                         50.5571             100             140               0                 Open   ;
 p546                 n536                 n161                         55.8986             100             140               0                 Open   ;
 p547                 n146                 n537                         57.5883             100             120               0                 Open   ;
 p548                 n537                 n150                         57.5883             100             120               0                 Open   ;
 p549                 n148                 n538                         41.1662             100             140               0                 Open   ;
 p550                 n538                 n334                         41.1662             100             140               0                 Open   ;
 p551                 n149                 n539                         44.5293             150             140               0                 Open   ;
 p552                 n539                 n157                         44.5315             150             140               0                 Open   ;
 p553                 n151                 n540                         40.8647             100             140               0                 Open   ;
 p554                 n540                 n333                         40.8606             100             140               0                 Open   ;
 p555                 n154                 n541                         39.9307             100             140               0                 Open   ;
 p556                 n541                 n332                         39.9399             100             140               0                 Open   ;
 p557                 n155                 n542                         53.1881             100             140               0                 Open   ;
 p558                 n542                 n543                         53.1746             100             140               0                 Open   ;
 p559                 n543                 n163                         53.1881             100             140               0                 Open   ;
 p560                 n157                 n544                         52.2754             100             140               0                 Open   ;
 p561                 n544                 n165                         52.2783             100             140               0                 Open   ;
 p562                 n158                 n545                          38.372             100             140               0                 Open   ;
 p563                 n545                 n546                         36.8009             100             140               0                 Open   ;
 p564                 n546                 n547                         46.4672             100             140               0                 Open   ;
 p565                 n547                 n548                          56.091             100             140               0                 Open   ;
 p566                 n548                 n165                         79.5058             100             140               0                 Open   ;
 p567                 n158                 n549                         55.5403             100             140               0                 Open   ;
 p568                 n549                 n550                         55.5409             100             140               0                 Open   ;
 p569                 n550                 n172                         55.5403             100             140               0                 Open   ;
 p570                 n159                 n551                         43.6496             100             140               0                 Open   ;
 p571                 n551                 n552                         43.6468             100             140               0                 Open   ;
 p572                 n552                 n167                         43.6496             100             140               0                 Open   ;
 p573                 n160                 n553                         55.0151             100             140               0                 Open   ;
 p574                 n553                 n554                         55.0151             100             140               0                 Open   ;
 p575                 n554                 n555                         55.0151             100             140               0                 Open   ;
 p576                 n555                 n177                         55.0151             100             140               0                 Open   ;
 p577                 n161                 n556                         38.8471             100             140               0                 Open   ;
 p578                 n556                 n168                         38.8453             100             140               0                 Open   ;
 p579                 n162                 n557                         60.9532             100             140               0                 Open   ;
 p580                 n557                 n170                         60.9616             100             140               0                 Open   ;
 p581                 n164                 n558                         46.0603             100             140               0                 Open   ;
 p582                 n558                 n559                         46.0541             100             140               0                 Open   ;
 p583                 n559                 n560                         46.0681             100             140               0                 Open   ;
 p584                 n560                 n561                         46.0541             100             140               0                 Open   ;
 p585                 n561                 n179                         46.0603             100             140               0                 Open   ;
 p586                 n165                 n562                         54.6393             100             140               0                 Open   ;
 p587                 n562                 n172                         54.6332             100             140               0                 Open   ;
 p588                 n166                 n563                         49.5382             100             140               0                 Open   ;
 p589                 n563                 n564                         49.5368             100             140               0                 Open   ;
 p590                 n564                 n565                         49.5382             100             140               0                 Open   ;
 p591                 n565                 n566                         49.5368             100             140               0                 Open   ;
 p592                 n566                 n185                         49.5382             100             140               0                 Open   ;
 p593                 n169                 n567                         48.5253             100             140               0                 Open   ;
 p594                 n567                 n568                         48.5197             100             140               0                 Open   ;
 p595                 n568                 n178                         48.5253             100             140               0                 Open   ;
 p596                 n171                 n569                         51.2225             100             140               0                 Open   ;
 p597                 n569                 n570                         51.2148             100             140               0                 Open   ;
 p598                 n570                 n571                         51.2289             100             140               0                 Open   ;
 p599                 n571                 n572                         51.2148             100             140               0                 Open   ;
 p600                 n572                 n188                         51.2225             100             140               0                 Open   ;
 p601                 n173                 n573                         53.3805             100             140               0                 Open   ;
 p602                 n573                 n574                         53.3666             100             140               0                 Open   ;
 p603                 n574                 n575                         53.3805             100             140               0                 Open   ;
 p604                 n575                 n576                         53.3666             100             140               0                 Open   ;
 p605                 n576                 n189                         53.3805             100             140               0                 Open   ;
 p606                 n176                 n577                         54.7828             100             140               0                 Open   ;
 p607                 n577                 n181                         48.7504             100             140               0                 Open   ;
 p608                 n176                 n578                         32.3629             100             140               0                 Open   ;
 p609                 n578                 n184                         32.3599             100             140               0                 Open   ;
 p610                 n182                 n579                          40.204             100             140               0                 Open   ;
 p611                 n579                 n184                         40.1921             100             140               0                 Open   ;
 p612                 n186                 n580                          49.861             100             140               0                 Open   ;
 p613                 n580                 n193                         49.8649             100             140               0                 Open   ;
 p614                 n187                 n581                         49.9509             100             140               0                 Open   ;
 p615                 n581                 n582                         49.9533             100             140               0                 Open   ;
 p616                 n582                 n195                         49.9509             100             140               0                 Open   ;
 p617                 n191                 n583                         46.4205             100             140               0                 Open   ;
 p618                 n583                 n584                         52.3405             100             140               0                 Open   ;
 p619                 n584                 n585                           45.92             100             140               0                 Open   ;
 p620                 n585                 n198                         47.1995             100             140               0                 Open   ;
 p621                 n191                 n586                          42.492             100             140               0                 Open   ;
 p622                 n586                 n587                          42.492             100             140               0                 Open   ;
 p623                 n587                 n196                          42.492             100             140               0                 Open   ;
 p624                 n192                 n588                         51.4257             100             140               0                 Open   ;
 p625                 n588                 n194                         53.0618             100             140               0                 Open   ;
 p626                 n194                 n589                         56.8085             100             140               0                 Open   ;
 p627                 n589                 n590                         56.8085             100             140               0                 Open   ;
 p628                 n590                 n197                         56.8085             100             140               0                 Open   ;
 p629                 n195                 n591                         45.0223             160             140               0                 Open   ;
 p630                 n591                 n197                         45.0146             160             140               0                 Open   ;
 p631                 n196                 n592                         50.1963             100             140               0                 Open   ;
 p632                 n592                 n593                         50.1828             100             140               0                 Open   ;
 p633                 n593                 n594                         50.1963             100             140               0                 Open   ;
 p634                 n594                 n595                         50.1828             100             140               0                 Open   ;
 p635                 n595                 n199                         50.1963             100             140               0                 Open   ;
 p636                 n196                 n596                         51.8426             100             140               0                 Open   ;
 p637                 n596                 n597                         51.8561             100             140               0                 Open   ;
 p638                 n597                 n598                         51.8426             100             140               0                 Open   ;
 p639                 n598                 n200                         51.8426             100             140               0                 Open   ;
 p640                 n198                 n599                          51.041             100             140               0                 Open   ;
 p641                 n599                 n600                         44.9201             100             140               0                 Open   ;
 p642                 n600                 n601                         48.6103             100             140               0                 Open   ;
 p643                 n601                 n203                         47.8073             100             140               0                 Open   ;
 p644                 n198                 n602                         43.1012             100             140               0                 Open   ;
 p645                 n602                 n603                         43.0927             100             140               0                 Open   ;
 p646                 n603                 n200                         43.1012             100             140               0                 Open   ;
 p647                 n199                 n604                         44.7849             160             140               0                 Open   ;
 p648                 n604                 n605                          44.793             160             140               0                 Open   ;
 p649                 n605                 n606                         44.7849             160             140               0                 Open   ;
 p650                 n606                 n607                          44.793             160             140               0                 Open   ;
 p651                 n607                 n204                         44.7849             160             140               0                 Open   ;
 p652                 n199                 n608                         42.2564             100             140               0                 Open   ;
 p653                 n608                 n609                         56.3877             100             140               0                 Open   ;
 p654                 n609                 n610                         55.6009             100             140               0                 Open   ;
 p655                 n610                 n611                           48.57             100             140               0                 Open   ;
 p656                 n611                 n612                         49.0932             100             140               0                 Open   ;
 p657                 n612                 n613                         45.8613             100             140               0                 Open   ;
 p658                 n613                 n200                         46.1546             100             140               0                 Open   ;
 p659                 n200                 n614                         53.6192             100             140               0                 Open   ;
 p660                 n614                 n201                         53.6134             100             140               0                 Open   ;
 p661                 n200                 n615                         51.9074             100             140               0                 Open   ;
 p662                 n615                 n616                         59.8917             100             140               0                 Open   ;
 p663                 n616                 n617                         47.9481             100             140               0                 Open   ;
 p664                 n617                 n204                         59.1206             100             140               0                 Open   ;
 p665                 n201                 n618                         40.5355             100             140               0                 Open   ;
 p666                 n618                 n203                         40.5355             100             140               0                 Open   ;
 p667                 n202                 n619                            46.3             100             140               0                 Open   ;
 p668                 n619                 n620                            46.3             100             140               0                 Open   ;
 p669                 n620                 n621                         46.3086             100             140               0                 Open   ;
 p670                 n621                 n214                            46.3             100             140               0                 Open   ;
 p671                 n204                 n622                         51.4048             160             140               0                 Open   ;
 p672                 n622                 n214                          51.397             160             140               0                 Open   ;
 p673                 n206                 n623                         44.2209             100             120               0                 Open   ;
 p674                 n623                 n226                         44.2109             100             120               0                 Open   ;
 p675                 n207                 n624                         38.9176             100             120               0                 Open   ;
 p676                 n624                 n210                         38.9119             100             120               0                 Open   ;
 p677                 n208                 n625                         42.9908             100             120               0                 Open   ;
 p678                 n625                 n337                         42.9908             100             120               0                 Open   ;
 p679                 n211                 n626                         34.6872             100             120               0                 Open   ;
 p680                 n626                 n233                          50.597             100             120               0                 Open   ;
 p681                 n218                 n627                         42.8756             200             140               0                 Open   ;
 p682                 n627                 n220                         42.8756             200             140               0                 Open   ;
 p683                 n218                 n628                         55.0033             200             140               0                 Open   ;
 p684                 n628                 n629                         55.0033             200             140               0                 Open   ;
 p685                 n629                 n335                         55.0033             200             140               0                 Open   ;
 p686                 n219                 n630                         41.3852             100             140               0                 Open   ;
 p687                 n630                 n222                         41.3852             100             140               0                 Open   ;
 p688                 n219                 n631                         39.2619             150             140               0                 Open   ;
 p689                 n631                 n338                         39.2615             150             140               0                 Open   ;
 p690                 n220                 n632                         49.8701             200             140               0                 Open   ;
 p691                 n632                 n633                         49.8781             200             140               0                 Open   ;
 p692                 n633                 n634                         49.8701             200             140               0                 Open   ;
 p693                 n634                 n635                         49.8701             200             140               0                 Open   ;
 p694                 n635                 n636                         49.8781             200             140               0                 Open   ;
 p695                 n636                 n230                         49.8701             200             140               0                 Open   ;
 p696                 n222                 n637                          39.021             150             140               0                 Open   ;
 p697                 n637                 n638                         46.2162             150             140               0                 Open   ;
 p698                 n638                 n639                         45.0813             150             140               0                 Open   ;
 p699                 n639                 n640                         55.5188             150             140               0                 Open   ;
 p700                 n640                 n641                         52.7013             150             140               0                 Open   ;
 p701                 n641                 n229                         38.6951             150             140               0                 Open   ;
 p702                 n223                 n642                         52.7766             100             140               0                 Open   ;
 p703                 n642                 n643                         52.7766             100             140               0                 Open   ;
 p704                 n643                 n644                         52.7677             100             140               0                 Open   ;
 p705                 n644                 n232                         52.7766             100             140               0                 Open   ;
 p706                 n223                 n645                         46.0095             100             140               0                 Open   ;
 p707                 n645                 n646                         49.2161             100             140               0                 Open   ;
 p708                 n646                 n647                          54.441             100             140               0                 Open   ;
 p709                 n647                 n648                         51.5097             100             140               0                 Open   ;
 p710                 n648                 n228                         56.1044             100             140               0                 Open   ;
 p711                 n224                 n649                         51.6009             100             140               0                 Open   ;
 p712                 n649                 n650                         51.6098             100             140               0                 Open   ;
 p713                 n650                 n651                         51.5963             100             140               0                 Open   ;
 p714                 n651                 n235                         51.6009             100             140               0                 Open   ;
 p715                 n224                 n652                          42.111             100             140               0                 Open   ;
 p716                 n652                 n225                         63.0104             100             140               0                 Open   ;
 p717                 n225                 n653                         46.3567             100             140               0                 Open   ;
 p718                 n653                 n654                         46.3567             100             140               0                 Open   ;
 p719                 n654                 n239                         46.3567             100             140               0                 Open   ;
 p720                 n225                 n655                         41.5854             100             140               0                 Open   ;
 p721                 n655                 n656                         42.1769             100             140               0                 Open   ;
 p722                 n656                 n657                         51.0216             100             140               0                 Open   ;
 p723                 n657                 n241                         44.6217             100             140               0                 Open   ;
 p724                 n228                 n658                         50.1102             100             140               0                 Open   ;
 p725                 n658                 n240                         50.1052             100             140               0                 Open   ;
 p726                 n230                 n659                         52.4974             200             140               0                 Open   ;
 p727                 n659                 n660                         52.4974             200             140               0                 Open   ;
 p728                 n660                 n248                         52.4974             200             140               0                 Open   ;
 p729                 n240                 n661                         56.5261             100             140               0                 Open   ;
 p730                 n661                 n662                         50.3384             100             140               0                 Open   ;
 p731                 n662                 n663                         62.2137             100             140               0                 Open   ;
 p732                 n663                 n252                         34.8226             100             140               0                 Open   ;
 p733                 n245                 n664                         50.6261             100             140               0                 Open   ;
 p734                 n664                 n665                         50.6292             100             140               0                 Open   ;
 p735                 n665                 n666                         50.6261             100             140               0                 Open   ;
 p736                 n666                 n258                         50.6292             100             140               0                 Open   ;
 p737                 n246                 n667                           35.78             100             120               0                 Open   ;
 p738                 n667                 n254                         52.1012             100             120               0                 Open   ;
 p739                 n248                 n668                         49.1982             200             140               0                 Open   ;
 p740                 n668                 n669                         50.9743             200             140               0                 Open   ;
 p741                 n669                 n670                         46.6046             200             140               0                 Open   ;
 p742                 n670                 n671                         47.2139             200             140               0                 Open   ;
 p743                 n671                 n672                         51.2096             200             140               0                 Open   ;
 p744                 n672                 n271                         50.8017             200             140               0                 Open   ;
 p745                 n251                 n673                         44.4531             100             140               0                 Open   ;
 p746                 n673                 n674                         44.4439             100             140               0                 Open   ;
 p747                 n674                 n675                         44.4531             100             140               0                 Open   ;
 p748                 n675                 n260                         44.4531             100             140               0                 Open   ;
 p749                 n252                 n676                         38.6749             100             140               0                 Open   ;
 p750                 n676                 n255                         38.6812             100             140               0                 Open   ;
 p751                 n255                 n677                         51.8609             150             140               0                 Open   ;
 p752                 n677                 n264                         51.8511             150             140               0                 Open   ;
 p753                 n257                 n678                         57.3993             100             140               0                 Open   ;
 p754                 n678                 n265                         57.3942             100             140               0                 Open   ;
 p755                 n257                 n679                         50.8348             100             140               0                 Open   ;
 p756                 n679                 n680                         50.8295             100             140               0                 Open   ;
 p757                 n680                 n263                         50.8348             100             140               0                 Open   ;
 p758                 n261                 n681                         50.3026             225             140               0                 Open   ;
 p759                 n681                 n682                         50.2996             225             140               0                 Open   ;
 p760                 n682                 n272                         50.3026             225             140               0                 Open   ;
 p761                 n262                 n683                         56.7786             100             140               0                 Open   ;
 p762                 n683                 n264                         47.9173             100             140               0                 Open   ;
 p763                 n263                 n684                         49.6335             100             140               0                 Open   ;
 p764                 n684                 n685                         49.6246             100             140               0                 Open   ;
 p765                 n685                 n686                         49.6335             100             140               0                 Open   ;
 p766                 n686                 n283                         49.6246             100             140               0                 Open   ;
 p767                 n266                 n687                         43.5047             100             140               0                 Open   ;
 p768                 n687                 n270                         43.5047             100             140               0                 Open   ;
 p769                 n266                 n688                         53.9334             150             140               0                 Open   ;
 p770                 n688                 n278                         53.9334             150             140               0                 Open   ;
 p771                 n269                 n689                          49.122             100             140               0                 Open   ;
 p772                 n689                 n690                         49.1175             100             140               0                 Open   ;
 p773                 n690                 n284                          49.122             100             140               0                 Open   ;
 p774                 n270                 n691                         40.5177             100             140               0                 Open   ;
 p775                 n691                 n272                         40.5146             100             140               0                 Open   ;
 p776                 n271                 n692                         49.4191             200             140               0                 Open   ;
 p777                 n692                 n693                         49.4191             200             140               0                 Open   ;
 p778                 n693                 n694                         49.4264             200             140               0                 Open   ;
 p779                 n694                 n695                         49.4191             200             140               0                 Open   ;
 p780                 n695                 n696                         49.4191             200             140               0                 Open   ;
 p781                 n696                 n298                         49.4191             200             140               0                 Open   ;
 p782                 n272                 n697                          41.858             225             140               0                 Open   ;
 p783                 n697                 n698                         41.8616             225             140               0                 Open   ;
 p784                 n698                 n285                          41.858             225             140               0                 Open   ;
 p785                 n273                 n699                          47.902             100             140               0                 Open   ;
 p786                 n699                 n700                         47.9154             100             140               0                 Open   ;
 p787                 n700                 n290                          47.902             100             140               0                 Open   ;
 p788                 n274                 n701                         44.2335             100             120               0                 Open   ;
 p789                 n701                 n702                         44.2262             100             120               0                 Open   ;
 p790                 n702                 n287                         44.2335             100             120               0                 Open   ;
 p791                 n277                 n703                         45.0892             100             140               0                 Open   ;
 p792                 n703                 n704                         47.0074             100             140               0                 Open   ;
 p793                 n704                 n705                         46.1225             100             140               0                 Open   ;
 p794                 n705                 n290                         64.7194             100             140               0                 Open   ;
 p795                 n279                 n706                         37.7147             100             140               0                 Open   ;
 p796                 n706                 n288                         37.7034             100             140               0                 Open   ;
 p797                 n279                 n707                         51.8136             100             140               0                 Open   ;
 p798                 n707                 n285                         51.8166             100             140               0                 Open   ;
 p799                 n281                 n708                         60.2072             100             120               0                 Open   ;
 p800                 n708                 n295                         60.1985             100             120               0                 Open   ;
 p801                 n282                 n709                         52.8283             100             120               0                 Open   ;
 p802                 n709                 n710                         52.8283             100             120               0                 Open   ;
 p803                 n710                 n711                         52.8194             100             120               0                 Open   ;
 p804                 n711                 n712                         52.8283             100             120               0                 Open   ;
 p805                 n712                 n311                         52.8283             100             120               0                 Open   ;
 p806                 n285                 n713                         47.0206             225             140               0                 Open   ;
 p807                 n713                 n714                         47.0158             225             140               0                 Open   ;
 p808                 n714                 n715                         47.0206             225             140               0                 Open   ;
 p809                 n715                 n716                          47.007             225             140               0                 Open   ;
 p810                 n716                 n717                         47.0206             225             140               0                 Open   ;
 p811                 n717                 n313                         47.0158             225             140               0                 Open   ;
 p812                 n286                 n718                         48.1788             100             120               0                 Open   ;
 p813                 n718                 n719                         48.1834             100             120               0                 Open   ;
 p814                 n719                 n720                         48.1788             100             120               0                 Open   ;
 p815                 n720                 n721                         48.1923             100             120               0                 Open   ;
 p816                 n721                 n722                         48.1788             100             120               0                 Open   ;
 p817                 n722                 n723                         48.1834             100             120               0                 Open   ;
 p818                 n723                 n320                         48.1788             100             120               0                 Open   ;
 p819                 n287                 n724                         51.7117             100             120               0                 Open   ;
 p820                 n724                 n725                         59.5779             100             120               0                 Open   ;
 p821                 n725                 n304                         60.0602             100             120               0                 Open   ;
 p822                 n289                 n726                         50.8261             100             140               0                 Open   ;
 p823                 n726                 n727                         50.8306             100             140               0                 Open   ;
 p824                 n727                 n728                         50.8261             100             140               0                 Open   ;
 p825                 n728                 n729                         50.8216             100             140               0                 Open   ;
 p826                 n729                 n730                         50.8261             100             140               0                 Open   ;
 p827                 n730                 n731                         50.8306             100             140               0                 Open   ;
 p828                 n731                 n322                         50.8261             100             140               0                 Open   ;
 p829                 n294                 n732                         37.5481             100             140               0                 Open   ;
 p830                 n732                 n299                         37.5347             100             140               0                 Open   ;
 p831                 n294                 n733                         45.9337             100             140               0                 Open   ;
 p832                 n733                 n734                         58.5196             100             140               0                 Open   ;
 p833                 n734                 n301                         42.5654             100             140               0                 Open   ;
 p834                 n295                 n735                         47.2069             100             120               0                 Open   ;
 p835                 n735                 n736                         47.2048             100             120               0                 Open   ;
 p836                 n736                 n307                         47.2069             100             120               0                 Open   ;
 p837                 n296                 n737                          48.881             100             120               0                 Open   ;
 p838                 n737                 n304                          48.881             100             120               0                 Open   ;
 p839                 n298                 n738                         56.3034             100             140               0                 Open   ;
 p840                 n738                 n739                         53.1364             100             140               0                 Open   ;
 p841                 n739                 n740                         48.3641             100             140               0                 Open   ;
 p842                 n740                 n314                         57.5482             100             140               0                 Open   ;
 p843                 n299                 n741                         46.8904             100             140               0                 Open   ;
 p844                 n741                 n742                         46.8904             100             140               0                 Open   ;
 p845                 n742                 n743                         46.8948             100             140               0                 Open   ;
 p846                 n743                 n744                         46.8814             100             140               0                 Open   ;
 p847                 n744                 n745                         46.8904             100             140               0                 Open   ;
 p848                 n745                 n323                         46.8904             100             140               0                 Open   ;
 p849                 n300                 n746                         54.1184             150             140               0                 Open   ;
 p850                 n746                 n747                         45.9944             150             140               0                 Open   ;
 p851                 n747                 n748                         40.1418             150             140               0                 Open   ;
 p852                 n748                 n749                         43.4813             150             140               0                 Open   ;
 p853                 n749                 n319                         42.9632             150             140               0                 Open   ;
 p854                 n302                 n750                         45.6712             100             140               0                 Open   ;
 p855                 n750                 n310                         65.9337             100             140               0                 Open   ;
 p856                 n305                 n751                         48.3722             100             140               0                 Open   ;
 p857                 n751                 n752                         48.3722             100             140               0                 Open   ;
 p858                 n752                 n753                         48.3856             100             140               0                 Open   ;
 p859                 n753                 n754                         48.3722             100             140               0                 Open   ;
 p860                 n754                 n755                         48.3722             100             140               0                 Open   ;
 p861                 n755                 n324                         48.3722             100             140               0                 Open   ;
 p862                 n306                 n756                         45.1285             100             140               0                 Open   ;
 p863                 n756                 n757                         45.1285             100             140               0                 Open   ;
 p864                 n757                 n318                         45.1285             100             140               0                 Open   ;
 p865                 n307                 n758                         38.2356             100             120               0                 Open   ;
 p866                 n758                 n311                         38.2439             100             120               0                 Open   ;
 p867                 n309                 n759                         39.8072             100             140               0                 Open   ;
 p868                 n759                 n315                         39.7938             100             140               0                 Open   ;
 p869                 n312                 n760                         39.7973             100             140               0                 Open   ;
 p870                 n760                 n317                         39.7883             100             140               0                 Open   ;
 p871                 n313                 n761                         38.3261             200             140               0                 Open   ;
 p872                 n761                 n321                         38.3123             200             140               0                 Open   ;
 p873                 n315                 n762                         54.8114             100             140               0                 Open   ;
 p874                 n762                 n318                          42.729             100             140               0                 Open   ;
 p875                 n318                 n763                         55.4572             100             140               0                 Open   ;
 p876                 n763                 n764                         39.2767             100             140               0                 Open   ;
 p877                 n764                 n325                         64.3591             100             140               0                 Open   ;
 p878                 n319                 n765                         50.9385             150             140               0                 Open   ;
 p879                 n765                 n766                          50.944             150             140               0                 Open   ;
 p880                 n766                 n767                         50.9385             150             140               0                 Open   ;
 p881                 n767                 n768                         50.9523             150             140               0                 Open   ;
 p882                 n768                 n769                         50.9385             150             140               0                 Open   ;
 p883                 n769                 n770                          50.944             150             140               0                 Open   ;
 p884                 n770                 n329                         50.9385             150             140               0                 Open   ;
 p885                 n321                 n771                         54.9745             200             140               0                 Open   ;
 p886                 n771                 n772                         54.9838             200             140               0                 Open   ;
 p887                 n772                 n773                         54.9709             200             140               0                 Open   ;
 p888                 n773                 n330                         54.9745             200             140               0                 Open   ;
 p889                 n329                 n774                         45.2004             150             140               0                 Open   ;
 p890                 n774                 n331                         45.2004             150             140               0                 Open   ;
 p891                 n330                 n775                         30.9899             200             140               0                 Open   ;
 p892                 n775                 n331                         48.2921             200             140               0                 Open   ;
 p893                 n335                 n776                         46.2032             200             140               0                 Open   ;
 p894                 n776                 n340                         46.2132             200             140               0                 Open   ;
 p895                 n338                 n777                         52.9065             100             140               0                 Open   ;
 p896                 n777                 n339                         52.9065             100             140               0                 Open   ;
 p897                 n338                 n778                         42.8355             150             140               0                 Open   ;
 p898                 n778                 n779                         42.8345             150             140               0                 Open   ;
 p899                 n779                 n342                         42.8355             150             140               0                 Open   ;
 p900                 n338                 n780                         37.3436             100             140               0                 Open   ;
 p901                 n780                 n781                         46.9972             100             140               0                 Open   ;
 p902                 n781                 n341                          49.524             100             140               0                 Open   ;
 p903                 n341                 n782                         46.3969             100             140               0                 Open   ;
 p904                 n782                 n342                         46.3969             100             140               0                 Open   ;
 p905                 n46                  n47                           8.9282             100             140               0                 Open   ;

[PUMPS]
;ID                   Node1                Node2                Properties          
 PUMP_1               n54                  T1                   HEAD     1                      ;

[VALVES]
;ID                   Node1                Node2                            Diameter Type              Setting           Minor Loss
 PRV-1                n303                 n300                             200 PRV               40               0   ;
 PRV-2                n336                 n111                             200 PRV               50               0   ;
 PRV-3                n229                 n226                             150 PRV               35               0   ;

[TAGS]
;type      name       tag       

[DEMANDS]
;ID        Demand     Pattern   

[STATUS]
;ID        Setting   

[PATTERNS]
;ID        Multipliers

[CURVES]
;ID         X-Value      Y-Value     
;PUMP: 1
 1              0.000000   126.670000   ;
 1             27.385600    88.669000   ;
 1             49.999000     0.000000   ;


[CONTROLS]

[RULES]

[ENERGY]
GLOBAL EFFICIENCY      75.0000
GLOBAL PRICE           0.0000
DEMAND CHARGE          0.0000

[EMITTERS]
;ID        Flow coefficient

[QUALITY]

[SOURCES]
;Node      Type       Quality    Pattern   

[REACTIONS]
;Type           Pipe/Tank               Coefficient

 ORDER BULK 1
 ORDER TANK 1
 ORDER WALL 1
 GLOBAL BULK 0.0000    
 GLOBAL WALL 0.0000    
 LIMITING POTENTIAL 0.0000    
 ROUGHNESS CORRELATION 0.0000    

[MIXING]
;Tank ID             Model Fraction

[TIMES]
DURATION             24:00:00
HYDRAULIC TIMESTEP   00:30:00
QUALITY TIMESTEP     00:05:00
PATTERN TIMESTEP     00:30:00
PATTERN START        00:00:00
REPORT TIMESTEP      00:30:00
REPORT START         00:00:00
START CLOCKTIME      00:00:00 AM
RULE TIMESTEP        00:06:00
STATISTIC            NONE      

[REPORT]
STATUS     FULL
SUMMARY    NO
PAGE       0

[OPTIONS]
UNITS                CMH                 
HEADLOSS             H-W                 
SPECIFIC GRAVITY     1
VISCOSITY            1
TRIALS               50
ACCURACY             0.01
CHECKFREQ            2
MAXCHECK             10
UNBALANCED           CONTINUE 10
DEMAND MULTIPLIER    1
EMITTER EXPONENT     0.5
QUALITY              NONE                
DIFFUSIVITY          1
TOLERANCE            0.01

[COORDINATES]
;Node      X-Coord    Y-Coord   
n1                138.220000000       1549.640000000
n2                274.230000000       1504.560000000
n3                271.280000000       1480.960000000
n4                186.620000000       1326.650000000
n5                158.930000000       1233.340000000
n6                261.330000000       1361.980000000
n7                369.970000000       1543.260000000
n8                162.650000000       1181.320000000
n9                256.540000000       1318.850000000
n10               361.450000000       1475.420000000
n11               167.140000000       1118.610000000
n12               271.090000000       1281.280000000
n13               170.680000000       1059.780000000
n14               302.240000000       1279.260000000
n15               344.840000000       1347.410000000
n16               336.370000000       1277.060000000
n17               177.120000000        987.980000000
n18               331.160000000       1227.210000000
n19               439.910000000       1391.070000000
n20               325.780000000       1173.230000000
n21               181.220000000        914.670000000
n22               525.830000000       1490.190000000
n23               314.660000000       1113.150000000
n24               393.300000000       1207.500000000
n25               195.950000000        860.160000000
n26               309.660000000       1037.480000000
n27               378.840000000       1136.180000000
n28               305.940000000       1008.070000000
n29               482.970000000       1314.280000000
n30               575.550000000       1471.840000000
n31               361.510000000       1100.770000000
n32               478.090000000       1296.300000000
n33               300.290000000        964.570000000
n34               423.910000000       1120.350000000
n35               292.400000000        892.500000000
n36               525.890000000       1281.280000000
n37               405.030000000       1063.300000000
n38               288.820000000        853.940000000
n39               389.450000000       1016.100000000
n40               370.290000000        938.650000000
n41               566.530000000       1268.510000000
n42               403.760000000        973.450000000
n43               432.650000000       1003.480000000
n44               526.160000000       1162.060000000
n45               460.340000000       1032.960000000
n46               574.860000000       1216.080000000
n47               570.900000000       1208.080000000
n48               617.950000000       1261.560000000
n49               519.130000000       1067.770000000
n50               727.000000000       1399.940000000
n51               445.940000000        892.440000000
n52               512.280000000        995.790000000
n53               444.760000000        848.990000000
n54               621.800000000       1124.080000000
n55               777.670000000       1368.090000000
n56               566.990000000        994.580000000
n57               609.290000000       1055.000000000
n58               526.200000000        889.830000000
n59               768.710000000       1259.780000000
n60               716.930000000       1123.700000000
n61               725.870000000       1121.150000000
n62               724.950000000       1097.080000000
n63               761.120000000       1142.360000000
n64               722.950000000       1058.300000000
n65               760.670000000       1111.340000000
n66               722.290000000       1043.960000000
n67               719.530000000        990.910000000
n68               906.240000000       1259.090000000
n69               674.200000000        852.920000000
n70               716.360000000        917.960000000
n71               745.580000000        918.670000000
n72               855.040000000       1060.670000000
n73               856.140000000       1039.650000000
n74               857.370000000       1016.180000000
n75               975.580000000       1204.220000000
n76               861.890000000        948.460000000
n77               954.160000000       1031.850000000
n78               866.290000000        878.520000000
n79               946.900000000       1007.570000000
n80               869.080000000        831.040000000
n81               943.910000000        956.000000000
n82              1063.350000000       1140.980000000
n83              1042.500000000       1036.710000000
n84               954.190000000        855.320000000
n85              1142.520000000       1079.080000000
n86              1161.000000000       1063.440000000
n87              1129.130000000        992.210000000
n88              1126.660000000        943.790000000
n89              1097.780000000        876.000000000
n90              1190.110000000       1028.080000000
n91              1140.090000000        898.210000000
n92              1163.250000000        905.360000000
n93              1292.790000000        806.640000000
n94               280.550000000        763.350000000
n95               226.160000000        644.610000000
n96               215.290000000        564.740000000
n97               331.420000000        760.190000000
n98               281.880000000        640.910000000
n99               208.680000000        502.810000000
n100              329.930000000        642.470000000
n101              290.470000000        557.110000000
n102              275.550000000        502.640000000
n103              313.200000000        556.670000000
n104              171.010000000        279.190000000
n105              332.640000000        554.960000000
n106              274.450000000        441.940000000
n107              314.250000000        505.080000000
n108              163.990000000        239.760000000
n109              314.520000000        498.030000000
n110              415.720000000        658.530000000
n111              458.670000000        732.350000000
n112              417.400000000        638.330000000
n113              384.780000000        555.060000000
n114              240.320000000        280.960000000
n115              465.630000000        663.630000000
n116              256.480000000        288.690000000
n117              538.760000000        776.660000000
n118              182.340000000        147.270000000
n119              246.150000000        255.650000000
n120              424.380000000        555.280000000
n121              194.100000000        136.420000000
n122              441.660000000        560.520000000
n123              375.730000000        407.030000000
n124              474.040000000        570.360000000
n125              323.810000000        290.360000000
n126              203.170000000         77.030000000
n127              270.570000000        166.580000000
n128              515.670000000        589.070000000
n129              659.800000000        795.050000000
n130              557.630000000        609.690000000
n131              283.280000000        126.160000000
n132              424.400000000        329.230000000
n133              623.810000000        629.640000000
n134              382.800000000        206.770000000
n135              362.920000000        164.590000000
n136              513.760000000        388.270000000
n137              430.850000000        241.210000000
n138              601.120000000        532.380000000
n139              373.510000000        131.030000000
n140              768.020000000        804.560000000
n141              686.520000000        649.740000000
n142              491.670000000        283.430000000
n143              635.340000000        483.620000000
n144              827.240000000        810.580000000
n145              698.870000000        585.630000000
n146              699.420000000        580.320000000
n147              556.440000000        328.410000000
n148              588.000000000        351.620000000
n149              704.160000000        533.840000000
n150              779.880000000        662.720000000
n151              617.830000000        373.570000000
n152              520.550000000        183.110000000
n153              803.430000000        664.310000000
n154              652.080000000        399.060000000
n155              877.850000000        782.220000000
n156              682.200000000        421.820000000
n157              713.200000000        445.230000000
n158              571.030000000        196.530000000
n159              912.700000000        758.450000000
n160              756.810000000        470.460000000
n161              843.120000000        600.120000000
n162              934.430000000        751.200000000
n163              869.240000000        622.900000000
n164              800.830000000        492.620000000
n165              719.470000000        340.870000000
n166              858.560000000        521.580000000
n167              920.700000000        627.750000000
n168              872.720000000        528.280000000
n169              993.500000000        734.780000000
n170              942.220000000        629.540000000
n171              893.490000000        538.090000000
n172              733.720000000        232.530000000
n173              928.900000000        554.770000000
n174              953.710000000        566.540000000
n175              783.830000000        249.680000000
n176             1067.850000000        732.350000000
n177              796.450000000        254.000000000
n178             1003.160000000        589.530000000
n179              835.460000000        264.940000000
n180             1034.080000000        604.930000000
n181             1056.460000000        630.410000000
n182             1077.300000000        658.250000000
n183              866.500000000        274.350000000
n184             1130.990000000        718.100000000
n185              898.570000000        277.140000000
n186             1090.250000000        587.400000000
n187             1011.430000000        450.850000000
n188              936.660000000        285.660000000
n189              956.080000000        289.280000000
n190             1072.100000000        487.170000000
n191             1204.590000000        707.940000000
n192             1137.550000000        583.510000000
n193             1088.530000000        487.690000000
n194             1107.830000000        487.780000000
n195             1025.240000000        301.640000000
n196             1192.630000000        581.020000000
n197             1113.870000000        317.460000000
n198             1395.960000000        701.000000000
n199             1185.250000000        330.180000000
n200             1399.800000000        571.760000000
n201             1506.540000000        582.040000000
n202             1508.930000000        554.080000000
n203             1563.840000000        639.400000000
n204             1407.950000000        353.670000000
n205             1612.650000000        644.210000000
n206             1636.630000000        668.440000000
n207             1558.760000000        511.020000000
n208             1629.010000000        592.810000000
n209             1632.350000000        565.570000000
n210             1636.290000000        517.860000000
n211             1672.420000000        568.340000000
n212             1638.940000000        452.000000000
n213             1699.150000000        522.980000000
n214             1509.620000000        368.870000000
n215             1638.340000000        378.760000000
n216             1701.690000000        458.210000000
n217             1704.520000000        382.320000000
n218             1562.620000000        897.080000000
n219             1558.860000000        845.700000000
n220             1646.610000000        914.360000000
n221             1641.780000000        845.180000000
n222             1641.480000000        840.680000000
n223             1690.260000000        842.710000000
n224             1691.990000000        782.260000000
n225             1757.100000000        733.690000000
n226             1712.940000000        623.740000000
n227             1732.870000000        611.570000000
n228             1904.170000000        894.730000000
n229             1757.580000000        636.180000000
n230             1943.760000000        949.610000000
n231             1746.950000000        576.210000000
n232             1901.180000000        834.140000000
n233             1754.990000000        555.700000000
n234             1774.410000000        580.500000000
n235             1898.190000000        772.990000000
n236             1765.630000000        499.290000000
n237             1793.430000000        546.200000000
n238             1925.460000000        770.100000000
n239             1895.250000000        717.740000000
n240             2004.390000000        894.550000000
n241             1893.100000000        683.370000000
n242             1768.520000000        456.830000000
n243             1797.820000000        479.880000000
n244             1889.110000000        627.980000000
n245             2046.960000000        894.600000000
n246             1771.990000000        413.950000000
n247             1805.930000000        436.450000000
n248             2101.210000000        945.900000000
n249             2103.470000000        894.660000000
n250             2103.630000000        889.650000000
n251             1952.820000000        622.690000000
n252             1998.450000000        693.210000000
n253             1847.970000000        400.330000000
n254             1848.770000000        391.160000000
n255             1982.680000000        617.480000000
n256             1906.630000000        447.860000000
n257             2162.960000000        890.350000000
n258             2055.010000000        692.250000000
n259             2055.320000000        682.070000000
n260             1930.120000000        446.340000000
n261             1925.520000000        395.400000000
n262             2118.180000000        680.810000000
n263             2168.950000000        737.970000000
n264             2080.640000000        583.400000000
n265             2277.740000000        891.800000000
n266             2101.070000000        568.830000000
n267             2167.050000000        677.060000000
n268             2141.650000000        606.400000000
n269             2200.090000000        674.830000000
n270             2093.380000000        482.160000000
n271             2393.770000000        985.030000000
n272             2076.240000000        402.960000000
n273             2198.620000000        603.330000000
n274             2409.170000000        938.260000000
n275             2334.020000000        792.330000000
n276             2160.980000000        478.770000000
n277             2197.040000000        535.910000000
n278             2196.790000000        519.110000000
n279             2196.900000000        506.880000000
n280             2371.480000000        789.980000000
n281             2426.890000000        885.770000000
n282             2429.120000000        832.940000000
n283             2367.000000000        724.400000000
n284             2347.170000000        665.860000000
n285             2201.820000000        403.370000000
n286             2425.740000000        786.580000000
n287             2538.560000000        967.690000000
n288             2266.760000000        478.460000000
n289             2408.920000000        721.880000000
n290             2342.020000000        593.810000000
n291             2541.760000000        937.820000000
n292             2544.480000000        918.130000000
n293             2405.760000000        668.930000000
n294             2412.430000000        668.540000000
n295             2547.280000000        884.000000000
n296             2576.890000000        923.800000000
n297             2363.370000000        519.200000000
n298             2682.870000000       1050.980000000
n299             2487.380000000        664.190000000
n300             2719.490000000       1060.340000000
n301             2411.410000000        522.160000000
n302             2411.100000000        516.740000000
n303             2737.790000000       1065.030000000
n304             2673.290000000        940.080000000
n305             2483.710000000        601.560000000
n306             2480.630000000        546.140000000
n307             2687.990000000        900.080000000
n308             2479.410000000        518.680000000
n309             2478.530000000        499.120000000
n310             2476.940000000        457.710000000
n311             2693.100000000        823.770000000
n312             2476.350000000        445.430000000
n313             2483.800000000        395.240000000
n314             2750.640000000        847.750000000
n315             2557.960000000        493.870000000
n316             2754.250000000        825.670000000
n317             2555.670000000        439.010000000
n318             2615.750000000        537.650000000
n319             2811.170000000        856.430000000
n320             2762.660000000        771.210000000
n321             2560.370000000        398.410000000
n322             2764.130000000        701.690000000
n323             2768.230000000        647.610000000
n324             2773.280000000        581.820000000
n325             2772.130000000        534.160000000
n326             2763.890000000        495.260000000
n327             2747.200000000        434.880000000
n328             2769.110000000        427.910000000
n329             2835.430000000        500.670000000
n330             2777.810000000        365.560000000
n331             2820.890000000        411.440000000
n332              603.950000000        462.800000000
n333              569.870000000        439.740000000
n334              536.590000000        415.930000000
n335             1397.950000000        907.670000000
n336              449.240000000        770.400000000
n337             1543.290000000        586.070000000
n338             1521.880000000        776.430000000
n339             1600.130000000        705.200000000
n340             1314.420000000        947.210000000
n341             1391.360000000        762.780000000
n342             1417.760000000        851.740000000
n343              548.480000000       1153.260000000
n344              353.140000000       1409.750000000
n345              424.850000000       1329.870000000
n346              447.730000000       1192.110000000
n347              135.020000000       1617.660000000
n348              179.230000000       1607.010000000
n349              227.110000000       1590.820000000
n350              275.120000000       1576.830000000
n351              318.710000000       1563.110000000
n352              317.840000000       1489.990000000
n353              263.420000000       1433.650000000
n354              308.000000000       1421.640000000
n355              217.790000000       1235.650000000
n356              265.510000000       1239.010000000
n357              305.240000000       1353.420000000
n358              421.930000000       1525.570000000
n359              473.870000000       1507.880000000
n360              217.030000000       1178.620000000
n361              271.400000000       1175.930000000
n362              413.650000000       1457.940000000
n363              452.680000000       1442.270000000
n364              216.320000000       1116.790000000
n365              265.490000000       1114.970000000
n366              217.010000000       1052.350000000
n367              263.330000000       1044.910000000
n368              384.840000000       1338.640000000
n369              218.180000000        980.170000000
n370              259.230000000        972.370000000
n371              396.530000000       1400.410000000
n372              377.560000000       1167.440000000
n373              236.810000000        903.590000000
n374              515.110000000       1446.210000000
n375              504.400000000       1402.240000000
n376              493.680000000       1358.260000000
n377              312.170000000       1075.320000000
n378              403.810000000       1248.290000000
n379              414.340000000       1289.080000000
n380              354.860000000        990.760000000
n381              563.140000000       1424.200000000
n382              550.730000000       1376.560000000
n383              538.310000000       1328.920000000
n384              462.920000000       1244.210000000
n385              435.830000000       1156.230000000
n386              329.560000000        896.300000000
n387              504.220000000       1119.030000000
n388              482.270000000       1075.990000000
n389              486.950000000       1177.090000000
n390              571.470000000       1176.460000000
n391              626.090000000       1151.640000000
n392              672.850000000       1137.730000000
n393              621.490000000       1207.600000000
n394              672.070000000       1207.110000000
n395              722.660000000       1206.630000000
n396              773.240000000       1206.150000000
n397              823.820000000       1205.670000000
n398              874.410000000       1205.190000000
n399              924.990000000       1204.710000000
n400              668.210000000       1260.960000000
n401              718.460000000       1260.380000000
n402              630.460000000       1304.150000000
n403              659.770000000       1341.020000000
n404              689.250000000       1388.100000000
n405              564.220000000       1061.390000000
n406              486.070000000        891.140000000
n407              519.240000000        942.810000000
n408              673.380000000       1110.580000000
n409              773.190000000       1313.930000000
n410              820.520000000       1331.760000000
n411              863.390000000       1295.430000000
n412              617.830000000        993.350000000
n413              668.680000000        992.140000000
n414              665.790000000       1049.480000000
n415              532.490000000        833.250000000
n416              814.560000000       1259.540000000
n417              860.400000000       1259.320000000
n418              768.310000000       1084.950000000
n419              811.680000000       1072.800000000
n420              811.490000000       1142.140000000
n421              861.860000000       1141.900000000
n422              912.240000000       1141.670000000
n423              962.600000000       1141.450000000
n424             1012.970000000       1141.210000000
n425              767.350000000       1052.080000000
n426              811.740000000       1045.870000000
n427              807.970000000       1102.080000000
n428              854.260000000       1089.090000000
n429              904.620000000       1077.180000000
n430              951.610000000       1083.250000000
n431              998.830000000       1085.740000000
n432             1047.150000000       1084.170000000
n433             1094.800000000       1083.120000000
n434              940.910000000       1231.660000000
n435              670.660000000        915.810000000
n436              904.610000000       1046.250000000
n437              902.130000000       1011.870000000
n438             1019.470000000       1172.600000000
n439              902.900000000        952.230000000
n440              997.910000000       1021.940000000
n441             1041.640000000       1012.030000000
n442             1095.650000000        988.290000000
n443              913.870000000        891.000000000
n444              956.940000000        898.180000000
n445              911.640000000        843.180000000
n446              996.980000000        943.750000000
n447             1042.540000000        933.450000000
n448             1091.190000000        922.540000000
n449             1102.940000000       1110.030000000
n450             1091.700000000       1033.830000000
n451             1140.900000000       1030.960000000
n452             1001.380000000        871.340000000
n453             1049.920000000        869.100000000
n454             1161.850000000        955.100000000
n455             1194.590000000        917.990000000
n456             1227.320000000        880.870000000
n457             1260.060000000        843.760000000
n458             1066.260000000        847.650000000
n459             1026.060000000        821.640000000
n460             1005.020000000        789.150000000
n461             1231.540000000       1001.120000000
n462             1272.980000000        974.170000000
n463             1252.340000000        784.510000000
n464             1211.890000000        762.370000000
n465             1171.440000000        740.240000000
n466             1334.440000000        821.680000000
n467             1376.100000000        836.700000000
n468              281.220000000        702.130000000
n469              223.120000000        777.030000000
n470              224.620000000        728.080000000
n471              218.800000000        690.240000000
n472              220.720000000        604.680000000
n473              252.890000000        560.920000000
n474              330.680000000        701.330000000
n475              396.980000000        751.050000000
n476              406.250000000        705.630000000
n477              286.180000000        599.010000000
n478              201.140000000        458.080000000
n479              193.610000000        413.360000000
n480              186.070000000        368.640000000
n481              178.540000000        323.910000000
n482              373.670000000        640.400000000
n483              331.290000000        598.720000000
n484              261.180000000        404.800000000
n485              256.040000000        356.270000000
n486              173.170000000        193.520000000
n487              205.070000000        247.710000000
n488              316.840000000        446.110000000
n489              319.160000000        394.200000000
n490              321.480000000        342.280000000
n491              420.900000000        596.800000000
n492              381.770000000        505.710000000
n493              378.740000000        456.380000000
n494              469.840000000        617.000000000
n495              490.660000000        626.350000000
n496              545.050000000        721.010000000
n497              551.340000000        665.340000000
n498              599.280000000        785.860000000
n499              258.370000000        211.120000000
n500              439.170000000        506.920000000
n501              462.110000000        467.350000000
n502              487.750000000        428.510000000
n503              232.340000000        151.500000000
n504              473.300000000        512.330000000
n505              504.950000000        464.120000000
n506              417.640000000        392.300000000
n507              377.500000000        356.970000000
n508              379.270000000        306.900000000
n509              381.040000000        256.830000000
n510              505.990000000        526.820000000
n511              537.930000000        483.280000000
n512              326.110000000        243.700000000
n513              333.630000000        191.290000000
n514              245.750000000         90.530000000
n515              288.340000000        104.030000000
n516              330.920000000        117.530000000
n517              545.090000000        546.980000000
n518              574.520000000        504.900000000
n519              713.910000000        799.800000000
n520              668.700000000        746.620000000
n521              677.620000000        698.180000000
n522              579.380000000        571.040000000
n523              427.620000000        285.220000000
n524              469.080000000        358.750000000
n525              650.000000000        559.010000000
n526              422.520000000        148.380000000
n527              471.540000000        165.750000000
n528              771.970000000        757.280000000
n529              775.930000000        710.000000000
n530              506.120000000        233.270000000
n531              524.060000000        305.920000000
n532              669.760000000        508.720000000
n533              658.770000000        452.720000000
n534              831.220000000        757.960000000
n535              831.650000000        704.970000000
n536              829.950000000        654.440000000
n537              739.650000000        621.520000000
n538              562.290000000        383.770000000
n539              708.690000000        489.540000000
n540              593.860000000        406.660000000
n541              628.020000000        430.930000000
n542              874.980000000        729.110000000
n543              872.110000000        676.010000000
n544              716.340000000        393.050000000
n545              569.390000000        234.870000000
n546              590.310000000        265.140000000
n547              587.320000000        311.510000000
n548              641.120000000        327.380000000
n549              625.260000000        208.530000000
n550              679.490000000        220.520000000
n551              915.360000000        714.880000000
n552              918.040000000        671.320000000
n553              766.720000000        416.350000000
n554              776.630000000        362.230000000
n555              786.540000000        308.120000000
n556              857.920000000        564.200000000
n557              938.320000000        690.380000000
n558              807.760000000        447.080000000
n559              814.690000000        401.550000000
n560              821.610000000        356.010000000
n561              828.530000000        310.470000000
n562              726.600000000        286.700000000
n563              866.550000000        472.690000000
n564              874.560000000        423.800000000
n565              882.560000000        374.910000000
n566              890.570000000        326.030000000
n567              996.720000000        686.360000000
n568              999.930000000        637.950000000
n569              902.120000000        487.600000000
n570              910.750000000        437.120000000
n571              919.390000000        386.630000000
n572              928.030000000        336.150000000
n573              934.340000000        501.670000000
n574              939.770000000        448.580000000
n575              945.210000000        395.480000000
n576              950.640000000        342.390000000
n577             1054.810000000        679.140000000
n578             1099.420000000        725.230000000
n579             1104.150000000        688.180000000
n580             1089.400000000        537.540000000
n581             1016.040000000        401.120000000
n582             1020.630000000        351.380000000
n583             1250.780000000        703.350000000
n584             1302.890000000        698.440000000
n585             1348.760000000        700.570000000
n586             1200.600000000        665.630000000
n587             1196.610000000        623.330000000
n588             1137.020000000        532.090000000
n589             1109.850000000        431.010000000
n590             1111.860000000        374.230000000
n591             1069.560000000        309.550000000
n592             1191.150000000        530.850000000
n593             1189.670000000        480.690000000
n594             1188.200000000        430.510000000
n595             1186.720000000        380.350000000
n596             1244.420000000        578.710000000
n597             1296.220000000        576.400000000
n598             1348.010000000        574.080000000
n599             1446.770000000        705.800000000
n600             1491.260000000        699.570000000
n601             1534.310000000        677.000000000
n602             1397.240000000        657.920000000
n603             1398.520000000        614.850000000
n604             1229.780000000        334.880000000
n605             1274.330000000        339.580000000
n606             1318.870000000        344.280000000
n607             1363.410000000        348.970000000
n608             1221.670000000        351.590000000
n609             1240.850000000        404.620000000
n610             1258.660000000        457.290000000
n611             1282.940000000        499.350000000
n612             1329.980000000        513.410000000
n613             1369.150000000        537.260000000
n614             1453.180000000        576.910000000
n615             1400.090000000        519.860000000
n616             1398.720000000        459.980000000
n617             1398.510000000        412.030000000
n618             1535.190000000        610.720000000
n619             1509.110000000        507.780000000
n620             1509.280000000        461.480000000
n621             1509.450000000        415.170000000
n622             1458.790000000        361.270000000
n623             1674.790000000        646.090000000
n624             1597.520000000        514.450000000
n625             1586.150000000        589.440000000
n626             1706.960000000        571.610000000
n627             1604.610000000        905.720000000
n628             1507.730000000        900.610000000
n629             1452.840000000        904.140000000
n630             1600.170000000        843.190000000
n631             1540.370000000        811.060000000
n632             1696.130000000        920.240000000
n633             1745.660000000        926.110000000
n634             1795.190000000        931.980000000
n635             1844.710000000        937.860000000
n636             1894.240000000        943.730000000
n637             1639.500000000        801.700000000
n638             1633.640000000        755.860000000
n639             1653.870000000        715.570000000
n640             1701.440000000        686.960000000
n641             1752.660000000        674.560000000
n642             1742.990000000        840.560000000
n643             1795.730000000        838.420000000
n644             1848.450000000        836.280000000
n645             1693.120000000        888.630000000
n646             1742.200000000        892.350000000
n647             1796.560000000        895.300000000
n648             1848.070000000        895.320000000
n649             1743.540000000        779.950000000
n650             1795.100000000        777.630000000
n651             1846.640000000        775.310000000
n652             1694.430000000        740.220000000
n653             1803.150000000        728.380000000
n654             1849.200000000        723.060000000
n655             1755.940000000        692.120000000
n656             1798.110000000        691.810000000
n657             1849.130000000        690.970000000
n658             1954.280000000        894.640000000
n659             1996.250000000        948.370000000
n660             2048.730000000        947.130000000
n661             2008.510000000        838.170000000
n662             2010.380000000        787.870000000
n663             2011.090000000        725.660000000
n664             2048.980000000        844.010000000
n665             2050.980000000        793.420000000
n666             2053.000000000        742.840000000
n667             1796.760000000        388.130000000
n668             2149.970000000        952.420000000
n669             2200.940000000        951.410000000
n670             2247.080000000        957.970000000
n671             2293.710000000        965.390000000
n672             2343.680000000        976.600000000
n673             1947.140000000        578.600000000
n674             1941.470000000        534.520000000
n675             1935.800000000        490.430000000
n676             1990.570000000        655.350000000
n677             2031.660000000        600.440000000
n678             2220.360000000        891.080000000
n679             2164.960000000        839.550000000
n680             2166.950000000        788.760000000
n681             1975.760000000        397.910000000
n682             2026.000000000        400.450000000
n683             2101.510000000        626.530000000
n684             2218.470000000        734.570000000
n685             2267.980000000        731.190000000
n686             2317.500000000        727.790000000
n687             2097.230000000        525.500000000
n688             2148.930000000        543.970000000
n689             2249.120000000        671.840000000
n690             2298.140000000        668.850000000
n691             2084.820000000        442.560000000
n692             2441.950000000        996.020000000
n693             2490.130000000       1007.010000000
n694             2538.320000000       1018.000000000
n695             2586.510000000       1028.990000000
n696             2634.690000000       1039.980000000
n697             2118.100000000        403.100000000
n698             2159.960000000        403.230000000
n699             2246.410000000        600.150000000
n700             2294.220000000        596.980000000
n701             2452.310000000        948.070000000
n702             2495.430000000        957.880000000
n703             2242.120000000        535.040000000
n704             2288.940000000        530.900000000
n705             2335.040000000        529.470000000
n706             2231.840000000        492.670000000
n707             2199.370000000        455.130000000
n708             2487.090000000        884.880000000
n709             2481.920000000        831.100000000
n710             2534.720000000        829.270000000
n711             2587.500000000        827.440000000
n712             2640.300000000        825.610000000
n713             2248.820000000        402.020000000
n714             2295.810000000        400.660000000
n715             2342.810000000        399.310000000
n716             2389.800000000        397.950000000
n717             2436.800000000        396.600000000
n718             2473.870000000        784.380000000
n719             2522.000000000        782.190000000
n720             2570.130000000        779.990000000
n721             2618.270000000        777.790000000
n722             2666.400000000        775.590000000
n723             2714.530000000        773.400000000
n724             2588.980000000        979.190000000
n725             2646.700000000        993.940000000
n726             2459.660000000        718.990000000
n727             2510.410000000        716.110000000
n728             2561.150000000        713.220000000
n729             2611.890000000        710.350000000
n730             2662.640000000        707.460000000
n731             2713.390000000        704.580000000
n732             2449.910000000        666.370000000
n733             2409.480000000        622.700000000
n734             2405.530000000        564.310000000
n735             2594.190000000        889.350000000
n736             2641.080000000        894.720000000
n737             2625.090000000        931.940000000
n738             2706.110000000        999.690000000
n739             2727.170000000        950.910000000
n740             2740.360000000        904.380000000
n741             2534.190000000        661.420000000
n742             2581.000000000        658.660000000
n743             2627.820000000        655.900000000
n744             2674.620000000        653.140000000
n745             2721.420000000        650.380000000
n746             2753.410000000       1018.170000000
n747             2771.300000000        975.800000000
n748             2789.580000000        940.060000000
n749             2802.180000000        898.450000000
n750             2412.370000000        471.080000000
n751             2531.970000000        598.270000000
n752             2580.230000000        594.980000000
n753             2628.500000000        591.700000000
n754             2676.760000000        588.400000000
n755             2725.020000000        585.110000000
n756             2525.670000000        543.310000000
n757             2570.710000000        540.480000000
n758             2690.540000000        861.930000000
n759             2518.250000000        496.500000000
n760             2516.010000000        442.210000000
n761             2522.090000000        396.820000000
n762             2612.760000000        495.030000000
n763             2670.960000000        532.390000000
n764             2708.510000000        543.910000000
n765             2814.630000000        805.610000000
n766             2818.100000000        754.790000000
n767             2821.570000000        703.970000000
n768             2825.030000000        653.130000000
n769             2828.500000000        602.310000000
n770             2831.970000000        551.490000000
n771             2614.730000000        390.200000000
n772             2669.100000000        381.980000000
n773             2723.450000000        373.770000000
n774             2828.160000000        456.050000000
n775             2808.790000000        364.690000000
n776             1356.190000000        927.440000000
n777             1561.010000000        740.810000000
n778             1487.170000000        801.530000000
n779             1452.460000000        826.630000000
n780             1487.840000000        761.070000000
n781             1440.880000000        763.000000000
n782             1404.560000000        807.260000000
R1               2760.320000000       1079.740000000
R2                444.860000000        806.310000000
T1                573.350000000       1142.780000000

[VERTICES]
;Link      X-Coord    Y-Coord   

[LABELS]

[BACKDROP]
DIMENSIONS    0.00    0.00    2970.45    1694.69
UNITS    METERS
OFFSET    0.00    0.00

[END]
